LAMMPS (15 Apr 2020)
OMP_NUM_THREADS environment is not set. Defaulting to 1 thread. (../comm.cpp:94)
  using 1 OpenMP thread(s) per MPI task
# ********************  Lammps script  ********************

# ********************  This manual script started at 2020/5/10 17:00:31  ********************

# ********************  50*8*4 NaCl Crystal Thermal Conductivity  ********************

echo            both

# ********************  Initialization  *******************

units           metal
dimension       3
boundary        p       p       p
atom_style      charge
atom_modify     map     hash

# ********************  Read Data  *******************

read_restart	nvt.restart
  restoring atom style charge from restart
  orthogonal box = (-5.90995 -2.14463 -1.77573) to (283.6 40.1746 16.3257)
  8 by 2 by 1 MPI processor grid
  restoring pair style born/coul/long from restart
  8400 atoms
  read_restart CPU = 0.0097615 secs

# ********************  Potential  *******************

pair_style      born/coul/long	15.0

pair_coeff      1       1	0.263703306	0.316997401	2.34	1.048572898	0.499320477
pair_coeff	1	2	0.210962645	0.316997401	2.755	6.990485644	8.675806132
pair_coeff	2	2	0.161911664	0.316997401	3.17	72.40145986	145.4270695

kspace_style	pppm/stagger	5.0e-5

# ********************  Pre Variable  *******************

variable	T	equal	1000
variable        P       equal	1
variable        Dt      equal	0.001		#timestep

# ********************  Print Parameter  *******************

#thermo          1000
#thermo_style    custom  step    temp    lx      ly      lz      press   vol     pe      ke      etotal

# ********************  Minimize  *******************
#fix             1  all  nve

#dump            1  all  custom  1000  dump.minstrc      id      type    x       y       z
#dump_modify     1  sort id

#min_style       cg
#minimize        1.0e-5  1.0e-8  1000000 1000000

#unfix           1
#undump          1

# ********************  Velocity Initialization  *******************

#velocity	all  create  ${T}  853275  mom  yes  rot  yes  dist  gaussian

# ********************  Temperature per Atom/Group  ********************

reset_timestep	 0
timestep        ${Dt}
timestep        0.001

compute         ALLKe      all     ke/atom
variable        KB         equal   8.625e-5
variable        TEMP       atom    c_ALLKe/1.5/${KB}
variable        TEMP       atom    c_ALLKe/1.5/8.625e-05
fix             TolTpA     all     ave/atom      10   50000   500000   v_TEMP

# ********************  NPT Equilibrium Processing  ********************

#fix             NPT	all	npt     temp     ${T}      ${T}    0.1	iso	${P}      ${P}    0.5

#dump            1       all     custom  500000  dump.npt        id      type    x   y   z   f_TolTpA
#dump_modify     1       sort    id

#thermo_style    custom  step    temp   lx   ly   lz	press  	vol	pe  ke  etotal
#thermo          1000

#restart         250000   NPT*.restart

#run             500000

#undump          1
#unfix           NPT

#write_restart   npt.restart                 #binary file

#write_data      npt.data    nocoeff         #text file

# ********************  NVT Equilibrium Processing  ********************

#fix             NVT     all	nvt     temp     ${T}      ${T}    0.1

#dump            2       all     custom  500000  dump.nvt        id      type    x   y   z   f_TolTpA
#dump_modify     2       sort    id

#run	500000

#undump          2
#unfix           NVT

#write_restart   nvt.restart                 #binary file

#write_data      nvt.data    nocoeff         #text file

# ********************  Coordinate Variable  *******************

variable	xmax	equal	lx
variable	A_40	equal	${xmax}/40
variable	A_40	equal	289.509909529259/40
variable	sor	equal	2*${A_40}
variable	sor	equal	2*7.23774773823147
variable	mid	equal	${xmax}/2
variable	mid	equal	289.509909529259/2
variable	sikL	equal	${mid}-${sor}
variable	sikL	equal	144.75495476463-${sor}
variable	sikL	equal	144.75495476463-14.4754954764629
variable	sikR	equal	${mid}+${sor}
variable	sikR	equal	144.75495476463+${sor}
variable	sikR	equal	144.75495476463+14.4754954764629

# ********************  region and group  *******************

region		fix1	block	INF	-0.5	INF	INF	INF	INF	units box

region		fix2	block	278.5	INF	INF	INF	INF	INF	units box

region		sink	block	139	150.5	INF	INF	INF	INF	units box

region		source1	block	-0.5	5	INF	INF	INF	INF	units box
region		source2	block	272.9	278.5	INF	INF	INF	INF	units box

region		main	block	-0.5	278.5	INF	INF	INF	INF	units box
region		wall	union	2	fix1	fix2

group	hot1	region	source1
161 atoms in group hot1
group	cold	region	sink
336 atoms in group cold
group	hot2	region	source2
168 atoms in group hot2
group	freeze	region	wall
336 atoms in group freeze
group	main_main	region	main
8064 atoms in group main_main

# ********************  Additional Thermal Parameter  ********************

compute	Thot1	hot1	temp/region     source1
compute	Tcold	cold	temp/region     sink

# ********************  2nd equilibrium processing  ********************

fix	nve	all	nve

compute         BLKX_40	all	chunk/atom	bin/1d	x	lower	${A_40}	units	box
compute         BLKX_40	all	chunk/atom	bin/1d	x	lower	7.23774773823147	units	box

fix	T_line_40	all	ave/chunk	200	2500	500000	BLKX_40	v_TEMP	file	temp_40.txt

fix	swap	all	thermal/conductivity	400	x	40

variable	tdiff	equal	c_Thot1-c_Tcold

dump            5       all     custom   500000   all*.une  id   type   x   y   z   f_TolTpA
dump_modify     5       sort    id

thermo_style    custom  step    temp	pe	ke	etotal	c_Thot1	c_Tcold	f_swap	v_tdiff
thermo          4000

restart         500000  2e*.restart

run             8000000
PPPM initialization ...
  using 12-bit tables for long-range coulomb (../kspace.cpp:332)
  G vector (1/distance) = 0.190725
  grid = 100 15 6
  stencil order = 5
  estimated absolute RMS force accuracy = 0.000570746
  estimated relative force accuracy = 3.96361e-05
  using double precision KISS FFT
  3d grid and FFT values/proc = 3192 624
Neighbor list info ...
  update every 1 steps, delay 10 steps, check yes
  max neighbors/atom: 2000, page size: 100000
  master list distance cutoff = 17
  ghost atom cutoff = 17
  binsize = 8.5, bins = 35 5 3
  1 neighbor lists, perpetual/occasional/extra = 1 0 0
  (1) pair born/coul/long, perpetual
      attributes: half, newton on
      pair build: half/bin/atomonly/newton
      stencil: half/bin/3d/newton
      bin: standard
Per MPI rank memory allocation (min/avg/max) = 6.841 | 7.166 | 7.25 Mbytes
Step Temp PotEng KinEng TotEng c_Thot1 c_Tcold f_swap v_tdiff 
       0      1009.01   -32265.647    1095.4377   -31170.209    1002.6391    1017.0548            0   -14.415764 
    4000    996.29229   -32251.806    1081.6307   -31170.175    1035.6583    950.99656    5.5153936     84.66169 
    8000    992.82148   -32248.085    1077.8626   -31170.223    1041.8717    1051.7384    10.975909   -9.8667538 
   12000    1016.6335   -32273.899    1103.7142   -31170.185    1100.4147    1039.2823    16.202547    61.132329 
   16000    1002.4675   -32258.559    1088.3348   -31170.224    947.56015    1060.0544    21.625255   -112.49425 
   20000    1000.6048   -32256.514    1086.3126   -31170.202     942.9111     984.2751    27.162698   -41.363994 
   24000    1002.7519   -32258.836    1088.6435   -31170.193    934.37524    989.38438    32.761278   -55.009139 
   28000    997.23643    -32252.84    1082.6557   -31170.184    895.93343    1116.1383    38.467708   -220.20484 
   32000    1006.5319   -32262.954    1092.7474   -31170.206    895.03137    1078.2072    43.894164   -183.17583 
   36000    1001.2597   -32257.208    1087.0236   -31170.184    874.46676    1044.0686    48.981343   -169.60181 
   40000    1004.6103   -32260.881    1090.6611    -31170.22    944.75852    1132.1749    54.463535   -187.41641 
   44000    1011.3677   -32268.178    1097.9974    -31170.18    850.00227    1099.7797    59.879627   -249.77747 
   48000    1006.4517   -32262.855    1092.6603   -31170.195     960.2565    1118.1533     65.30739   -157.89684 
   52000    1004.6256   -32260.861    1090.6777   -31170.183    887.33331    1067.9987    71.017686    -180.6654 
   56000    1014.4164   -32271.513    1101.3072   -31170.205    963.37208    1104.2328    76.689809    -140.8607 
   60000    1003.9085   -32260.107    1089.8992   -31170.207    981.76551    1055.0324    81.502299   -73.266868 
   64000    995.04748   -32250.527    1080.2792   -31170.248    968.41672    1200.9989    86.968429   -232.58221 
   68000    1004.2574   -32260.496     1090.278   -31170.218    920.19329    1098.0495    92.658597   -177.85616 
   72000    1004.6834   -32260.972    1090.7405   -31170.231    945.08164    1054.9549    97.602269   -109.87328 
   76000     1003.217   -32259.417    1089.1486   -31170.269    918.19276    1030.4932    102.84162   -112.30043 
   80000    993.98502   -32249.365    1079.1258   -31170.239    936.48374    1093.5937     108.2745   -157.10996 
   84000    1007.7244   -32264.268     1094.042   -31170.226    982.25458     1047.943    114.04287   -65.688384 
   88000     1001.557   -32257.574    1087.3463   -31170.227     878.8039    1078.7905    119.81202   -199.98663 
   92000    1002.8951    -32259.02    1088.7991   -31170.221    929.26078    1159.5442    124.84275   -230.28345 
   96000    995.54838   -32251.033     1080.823    -31170.21    878.27667    1089.5917    130.00752   -211.31502 
  100000    1007.0887    -32263.58    1093.3518   -31170.229    832.00318    1130.6972     136.3297   -298.69399 
  104000    993.52393   -32248.851    1078.6252   -31170.226    962.85497    1142.6067    141.27491   -179.75176 
  108000    1006.6112   -32263.034    1092.8334   -31170.201    891.17733    1071.1555    146.93879   -179.97821 
  112000    1000.3392    -32256.27    1086.0242   -31170.245    880.27412    1081.7925    152.84965   -201.51843 
  116000    1008.6479   -32265.249    1095.0446   -31170.205    948.11375    1070.0228    158.12791   -121.90909 
  120000    996.71138   -32252.313    1082.0857   -31170.228    818.13462    1144.8079    163.39386   -326.67331 
  124000     982.6872   -32237.083    1066.8602   -31170.223    970.21266    1097.9219    168.17786   -127.70925 
  128000    992.13191   -32247.324    1077.1139    -31170.21    856.85845    1051.7217    173.32628   -194.86326 
  132000    997.68422   -32253.337    1083.1418   -31170.195    916.67703    1162.1359     178.6478   -245.45889 
  136000    1002.6876   -32258.785    1088.5738   -31170.211     942.1403    1104.6493    184.26875   -162.50905 
  140000    996.18784   -32251.767    1081.5173    -31170.25    956.55142    1135.3934    190.13275   -178.84193 
  144000    1002.0538   -32258.148    1087.8856   -31170.262    928.09558    1104.5962    195.65148   -176.50065 
  148000    1003.5414   -32259.743    1089.5007   -31170.242    903.88916     1085.161    200.95994   -181.27182 
  152000    1007.1834   -32263.686    1093.4546   -31170.232    972.47975    1125.5269    206.07354   -153.04711 
  156000    997.11469   -32252.774    1082.5235   -31170.251    956.13739    1122.0093    211.78383   -165.87188 
  160000    990.98083   -32246.072    1075.8642   -31170.208    964.48542    1151.2453    217.41023   -186.75991 
  164000    993.97368   -32249.351    1079.1134   -31170.237    882.65907    1105.1936    223.07238   -222.53458 
  168000    1003.9209   -32260.149    1089.9127   -31170.236    860.25043     1096.219    228.14571   -235.96857 
  172000    999.69097   -32255.551    1085.3205   -31170.231    946.43835    1127.5147    233.63563    -181.0764 
  176000    1000.6495    -32256.61    1086.3611   -31170.249    920.90621    1038.4542    238.71595   -117.54794 
  180000    996.31585   -32251.921    1081.6562   -31170.265    985.18648     1024.112    244.18454   -38.925514 
  184000    990.45414   -32245.533    1075.2924   -31170.241    963.83109    1149.8152    249.62507   -185.98413 
  188000    992.18917    -32247.44    1077.1761   -31170.264    935.84485    1089.9613    255.23859   -154.11647 
  192000    1005.9928   -32262.419     1092.162   -31170.257    949.27294    1200.1838    260.51981   -250.91086 
  196000    1001.2393   -32257.272    1087.0014   -31170.271     882.2194    1194.9768    266.46791   -312.75742 
  200000    1002.4555    -32258.58    1088.3218   -31170.258    897.36656    1170.2352     271.7725   -272.86862 
  204000    1006.3844   -32262.842    1092.5873   -31170.254    1037.4915    1101.9685    277.16776   -64.477017 
  208000    1008.0345   -32264.636    1094.3787   -31170.258    854.01378    1082.2199     282.4085   -228.20608 
  212000    994.95558   -32250.435    1080.1795   -31170.255    962.67372    1056.3638    288.29398   -93.690048 
  216000    998.52777    -32254.31    1084.0576   -31170.253    874.89725    1053.1021    293.83624   -178.20485 
  220000    992.98747   -32248.331    1078.0428   -31170.288     984.5186    1165.5093    299.09446   -180.99074 
  224000    993.87127   -32249.246    1079.0023   -31170.244    904.09215    1149.0708     304.3735   -244.97869 
  228000    1015.9148   -32273.209     1102.934   -31170.275    1028.6559    1084.0465     309.4134   -55.390628 
  232000    1003.1368   -32259.341    1089.0614   -31170.279    1038.6084    1099.3228    314.18686    -60.71439 
  236000      999.912   -32255.842    1085.5604   -31170.281    909.23223    1115.2153    319.89902   -205.98312 
  240000    997.57327   -32253.299    1083.0214   -31170.278    905.93052    1172.2046    325.70155   -266.27411 
  244000    997.86939   -32253.634    1083.3428   -31170.292      976.863    1098.4684    331.23725   -121.60539 
  248000     1001.885   -32257.984    1087.7024   -31170.281    819.77393    1107.6402    336.55991   -287.86628 
  252000     997.9614   -32253.741    1083.4427   -31170.298    891.91178    1083.7705    341.06212   -191.85875 
  256000    999.49236   -32255.376    1085.1048   -31170.271     838.0445     1077.684    346.81236   -239.63951 
  260000    997.89369   -32253.666    1083.3692   -31170.297    875.41784    1086.0199    351.86556   -210.60203 
  264000    988.27217   -32243.213    1072.9236   -31170.289    989.88636    1057.9903    357.21077   -68.103918 
  268000    1000.3244   -32256.281    1086.0082   -31170.273    924.85926     1109.072    362.44437   -184.21269 
  272000    999.96992   -32255.917    1085.6233   -31170.293    940.73779    1004.5042     367.3964   -63.766408 
  276000    992.74454   -32248.071     1077.779   -31170.292    1002.9043    1072.1909    372.53067   -69.286617 
  280000    995.84562   -32251.441    1081.1457   -31170.296    918.69873    1021.9162    377.71082   -103.21743 
  284000    993.49003    -32248.88    1078.5884   -31170.292    874.60312    1094.9028    383.10573    -220.2997 
  288000    1005.4972   -32261.885    1091.6241   -31170.261     908.0354    1114.2725    388.03516   -206.23709 
  292000    1007.3007    -32263.88     1093.582   -31170.298    927.20007    1086.6337    393.98778   -159.43359 
  296000    1004.2711   -32260.595    1090.2929   -31170.302    1034.9304    1142.8009    399.42764   -107.87053 
  300000    1003.0997   -32259.315    1089.0211   -31170.294    873.51463    1086.7792    404.91283   -213.26454 
  304000    1003.6924   -32259.958    1089.6647   -31170.293    913.10172    1053.3447    410.08948   -140.24298 
  308000    1006.2059   -32262.684    1092.3934    -31170.29    932.33407     1043.531    415.15052   -111.19691 
  312000    1007.5205   -32264.116    1093.8206   -31170.295    909.01662    1137.8732    421.15129   -228.85657 
  316000    997.22639   -32252.945    1082.6448     -31170.3    925.39615    1124.1228    426.46013    -198.7266 
  320000    1000.1892   -32256.125    1085.8613   -31170.263    832.44654    1010.3453    431.81627   -177.89873 
  324000    1001.0367   -32257.083    1086.7815   -31170.302    949.28437    1112.3032    436.49356   -163.01879 
  328000    1008.9092    -32265.62    1095.3283   -31170.292    899.61317      1111.33    442.09353   -211.71685 
  332000    1013.4663   -32270.584    1100.2757   -31170.308    934.06963    1130.9439    447.52928   -196.87426 
  336000    993.39387   -32248.748     1078.484   -31170.264    817.10014    1195.4766    452.42345   -378.37641 
  340000    1006.7968   -32263.342    1093.0349   -31170.307    962.87269    1085.9566    457.80274   -123.08391 
  344000    1003.8026   -32260.062    1089.7843   -31170.278    929.08955    1114.8768    463.50544    -185.7873 
  348000    1000.0308   -32256.026    1085.6894   -31170.336     897.8864    1176.5455    468.74392   -278.65911 
  352000     999.4259   -32255.362    1085.0327    -31170.33     836.4676    1187.9725    475.52585   -351.50495 
  356000    988.99913   -32244.024    1073.7128   -31170.312    988.88412    1110.8663    480.52931   -121.98218 
  360000    992.50622   -32247.836    1077.5203   -31170.316    869.61101    1155.1714    486.63213   -285.56039 
  364000      1001.74   -32257.878     1087.545   -31170.333    831.41057     1071.895    492.31796   -240.48447 
  368000    1002.0954   -32258.259    1087.9309   -31170.329     939.4541     1038.481    497.27155   -99.026857 
  372000    1017.5625   -32275.041    1104.7227   -31170.318    1016.2616    1157.0177    502.29236   -140.75607 
  376000    993.71695   -32249.175    1078.8347   -31170.341    971.36427    1004.6489    507.43427    -33.28467 
  380000    998.47833   -32254.318    1084.0039   -31170.314    827.06616    1062.8452    512.67458   -235.77908 
  384000     998.5636   -32254.425    1084.0965   -31170.328    913.66913    1153.5096    518.03758   -239.84045 
  388000    997.10842   -32252.837    1082.5167    -31170.32    902.68179    1086.3115    522.82202   -183.62972 
  392000    1007.9374   -32264.594    1094.2732   -31170.321    788.61947     1092.664    527.79856   -304.04456 
  396000    1000.1111   -32256.092    1085.7765   -31170.316    931.74091    1079.3491    532.78902   -147.60821 
  400000    995.85424   -32251.477    1081.1551   -31170.322    860.19738     1079.426    537.83131   -219.22866 
  404000    992.71817   -32248.094    1077.7504   -31170.344    945.45442    1066.4891    543.91692   -121.03467 
  408000     1008.303   -32264.976    1094.6701   -31170.306    973.11687    1074.1825    549.64406   -101.06558 
  412000    986.59893   -32241.452     1071.107   -31170.345    946.81578    1025.1363    554.85942   -78.320556 
  416000    994.27026   -32249.762    1079.4354   -31170.327    919.85716    1133.4577    560.79064   -213.60056 
  420000    999.27598     -32255.2    1084.8699    -31170.33     930.4441    1062.1897    566.25324   -131.74562 
  424000    995.46497   -32251.083    1080.7325    -31170.35    839.16826    1244.6806    571.20461   -405.51234 
  428000    1012.9468    -32270.02    1099.7118   -31170.309    888.43301    1162.0929    576.26153    -273.6599 
  432000    998.00476   -32253.808    1083.4898   -31170.319    919.87865    1120.5426    581.10176   -200.66393 
  436000    997.87875   -32253.671     1083.353   -31170.318    920.97402    1168.1872    587.13525   -247.21318 
  440000    993.45551   -32248.871    1078.5509    -31170.32    1015.9156    1156.1061     592.2833   -140.19049 
  444000    1005.0646   -32261.449    1091.1544   -31170.295    955.86903    1177.8808    597.20929   -222.01179 
  448000    1004.5701   -32260.902    1090.6175   -31170.285    894.80132    1137.5664    602.49614    -242.7651 
  452000    1000.5636   -32256.595    1086.2679   -31170.327    937.01445    1069.2018    607.99933   -132.18737 
  456000    1006.3089   -32262.823    1092.5052   -31170.318    874.45732    1061.8897    613.07817   -187.43236 
  460000     998.6585   -32254.518    1084.1995   -31170.318    965.97844    1079.4606    618.30167   -113.48213 
  464000    1000.5183   -32256.534    1086.2186   -31170.315    874.28342    1072.7731    623.25504   -198.48967 
  468000    1014.2416   -32271.409    1101.1175   -31170.292     926.0281    1111.6505    628.20836   -185.62241 
  472000    1002.8605   -32259.028    1088.7615   -31170.267    928.26252    1052.0921    633.16326   -123.82958 
  476000    996.66519   -32252.346    1082.0355    -31170.31    813.93291    1061.5513    638.34337   -247.61839 
  480000    1002.7346   -32258.914    1088.6248   -31170.289    875.23226    1095.6353    643.42436   -220.40307 
  484000    997.79931    -32253.53    1083.2668   -31170.263    943.70171    1060.1919    648.61212   -116.49015 
  488000    1000.5734   -32256.582    1086.2785   -31170.304    877.29933    1173.7396    653.35093   -296.44022 
  492000    998.74252   -32254.576    1084.2908   -31170.285    945.69018    1134.0645    658.25684   -188.37433 
  496000    990.10351   -32245.179    1074.9118   -31170.267    858.25879    1155.9261    663.36716   -297.66731 
  500000    998.88764   -32254.764    1084.4483   -31170.316    875.74443    1062.1971    668.49386    -186.4527 
  504000    1012.5901   -32269.595    1099.3244   -31170.271    801.08779    1142.9745    673.37501   -341.88672 
  508000     994.1886   -32249.659    1079.3468   -31170.312    905.61811    1020.2831    678.60163   -114.66502 
  512000    1003.9718   -32260.256     1089.968   -31170.288    921.04073    1145.2445     683.5359   -224.20376 
  516000    1002.0224   -32258.157    1087.8516   -31170.306     969.8779    1070.2367    689.32503   -100.35881 
  520000    995.49001   -32251.046    1080.7597   -31170.286    933.58936     1169.527    694.55334    -235.9376 
  524000    1002.7397   -32258.915    1088.6303   -31170.285    1030.5843    1160.2619    700.35899   -129.67752 
  528000    1003.0103   -32259.211    1088.9241   -31170.287    964.86088    1096.5697    705.50857   -131.70881 
  532000    996.86895   -32252.549    1082.2567   -31170.292    870.47801    1046.9017    711.03292   -176.42374 
  536000    1007.4207   -32263.989    1093.7123   -31170.277    977.57657    1172.4076     716.8659   -194.83105 
  540000    997.06887   -32252.764    1082.4738    -31170.29     918.4202    1070.8698    721.81855   -152.44958 
  544000    1000.4195   -32256.406    1086.1114   -31170.295    885.42404    1091.2887    727.06763   -205.86468 
  548000    999.67782   -32255.611    1085.3062   -31170.305    862.93225    1035.8193    733.06149   -172.88704 
  552000     1004.707   -32261.059    1090.7661   -31170.293    974.99346    1060.6942    738.53024   -85.700759 
  556000    1005.7944   -32262.213    1091.9467   -31170.267    939.78004    1079.2194    744.35481   -139.43933 
  560000    1002.2927   -32258.421     1088.145   -31170.276    868.12021    1105.6059    749.60001   -237.48571 
  564000    1003.2109   -32259.436    1089.1418   -31170.294    907.09825    1146.8243    754.64472   -239.72605 
  568000     1002.796   -32258.963    1088.6915   -31170.272    867.25786     1123.432    759.80661   -256.17409 
  572000    1012.5866   -32269.601    1099.3207   -31170.281    897.88292    1155.1815    765.39237   -257.29854 
  576000    1006.4572   -32262.944    1092.6662   -31170.277     796.2637    1073.1636    770.54338   -276.89991 
  580000    1006.3834   -32262.866    1092.5861    -31170.28    954.74383    1142.4422    775.56237   -187.69839 
  584000      1000.07   -32256.006     1085.732   -31170.274    856.25777     1131.225    781.38274    -274.9672 
  588000    998.49606   -32254.314    1084.0232   -31170.291    952.80727    1118.0463    786.44997     -165.239 
  592000    992.07496   -32247.324    1077.0521   -31170.272    931.41783    1136.8306    791.90114   -205.41275 
  596000    985.07286   -32239.718    1069.4502   -31170.267    854.49638    1094.3488    796.93872   -239.85245 
  600000    996.64154   -32252.274    1082.0098   -31170.264    926.80361    1072.4886    802.47969   -145.68499 
  604000    1009.7555   -32266.539    1096.2471   -31170.292    869.47862    1124.4731    807.74229   -254.99452 
  608000    1006.0742   -32262.534    1092.2505   -31170.283    889.63465    1070.3072    813.09757   -180.67257 
  612000    990.09656   -32245.216    1074.9042   -31170.311     858.7138    1050.0642    818.33056   -191.35035 
  616000    1006.8705    -32263.39     1093.115   -31170.275    961.77425    1053.6042    823.23356   -91.829971 
  620000     1011.962   -32268.939    1098.6426   -31170.296    1010.8145    1213.6236    828.26816   -202.80912 
  624000    988.28682   -32243.224    1072.9395   -31170.284    853.26204     1099.911    832.91884   -246.64897 
  628000    1007.4008   -32263.982    1093.6907   -31170.291    937.88669    1174.5538     837.9413   -236.66709 
  632000    996.76685   -32252.435    1082.1459   -31170.289    856.67285    1135.1373    843.32792   -278.46448 
  636000    1001.7637   -32257.848    1087.5708   -31170.277    877.31264    1194.0909    848.53885   -316.77824 
  640000    1003.4139    -32259.62    1089.3623   -31170.258    904.22244     1126.276    854.06309   -222.05354 
  644000    1001.7228   -32257.824    1087.5263   -31170.298    915.15107    1180.9627    859.40814   -265.81165 
  648000    991.56596   -32246.786    1076.4995   -31170.287    984.53744    1190.4091    864.67807   -205.87167 
  652000     1002.619   -32258.748    1088.4993   -31170.249    1011.6218    1096.4845    870.80431   -84.862733 
  656000    1010.1458   -32266.933    1096.6708   -31170.262    898.29654     1086.784      876.111   -188.48745 
  660000    995.33118   -32250.874    1080.5872   -31170.287    854.16345    1135.7148    881.38582    -281.5513 
  664000    997.57059   -32253.288    1083.0185    -31170.27    946.61833    1156.6386    886.42551   -210.02027 
  668000    1001.0605   -32257.091    1086.8073   -31170.283    840.20749    1206.6102    891.75582   -366.40271 
  672000    1001.7149   -32257.797    1087.5177    -31170.28    849.17944    1188.8956    896.72981   -339.71611 
  676000    996.07474   -32251.662    1081.3945   -31170.268    888.26732    1119.1657    902.55717    -230.8984 
  680000    995.88495   -32251.441    1081.1884   -31170.252    985.68695    1054.6579    907.50131   -68.970964 
  684000    1015.2163   -32272.418    1102.1756   -31170.242    835.87314    1103.8006    912.16986   -267.92743 
  688000    995.76525   -32251.329    1081.0585    -31170.27     932.1238    1144.2382    917.77824    -212.1144 
  692000    1006.9979   -32263.507    1093.2533   -31170.254    809.00324    1043.2783    922.85334   -234.27506 
  696000     1009.711   -32266.442    1096.1988   -31170.243    893.10028    1178.3781    927.66059   -285.27778 
  700000    992.84909   -32248.128    1077.8925   -31170.235    905.98802    1055.5673     933.2561   -149.57926 
  704000    996.80721   -32252.422    1082.1897   -31170.233    946.38912    1123.1903    938.24951   -176.80119 
  708000     1000.216   -32256.128    1085.8904   -31170.238     801.0496    1252.7572    943.58967   -451.70762 
  712000    999.47504   -32255.336     1085.086    -31170.25    941.88983    1140.4799    949.16553   -198.59003 
  716000    994.86383   -32250.312    1080.0798   -31170.232    882.67797    1031.1097    954.16359   -148.43173 
  720000    995.07337   -32250.549    1080.3073   -31170.242    978.40509     1083.388    959.65425   -104.98292 
  724000    998.15777   -32253.902    1083.6559   -31170.246    901.29898     1096.782    964.64974   -195.48306 
  728000    997.37099    -32253.02    1082.8018   -31170.218    915.80111    1135.5743    969.72514   -219.77321 
  732000    1006.6155   -32263.092    1092.8382   -31170.254    924.32054    1204.9652    975.64815   -280.64467 
  736000    999.90723   -32255.802    1085.5552   -31170.247    944.53301    1128.0958    980.79003   -183.56283 
  740000    1003.7047    -32259.94     1089.678   -31170.262    931.53114    1147.3621    986.02987   -215.83092 
  744000    1002.3604   -32258.472    1088.2186   -31170.253    865.87894    1080.6744    991.46339   -214.79545 
  748000    1003.3873    -32259.59    1089.3334   -31170.256    960.68609    1176.4978    997.04605   -215.81167 
  752000     996.9995    -32252.64    1082.3984   -31170.242    1008.6946    1157.0223    1002.1033   -148.32765 
  756000    1004.5447   -32260.833      1090.59   -31170.243    821.51882    1149.9261    1007.6603    -328.4073 
  760000    1001.8445   -32257.926    1087.6584   -31170.267    880.98335    1123.5579    1012.9294   -242.57453 
  764000    999.50999   -32255.387     1085.124   -31170.263    870.51474    1030.1993    1017.7626   -159.68452 
  768000    1007.8481   -32264.444    1094.1763   -31170.268    932.88136    1079.6747    1022.8478   -146.79332 
  772000    995.13788   -32250.632    1080.3774   -31170.255    973.28024    1144.3209    1028.6768   -171.04071 
  776000    1004.1395   -32260.385    1090.1501   -31170.235    907.48405    1127.6274    1033.6893   -220.14331 
  780000    995.86599   -32251.402    1081.1678   -31170.234    942.72936    1033.4267    1039.0539   -90.697334 
  784000    997.92118   -32253.652    1083.3991   -31170.253    944.95103    1140.8069    1044.2024   -195.85591 
  788000    1002.8754    -32259.03    1088.7776   -31170.253    909.78613    1171.2492    1049.4594   -261.46308 
  792000    1004.6424   -32260.934     1090.696   -31170.238     925.3487    1141.2878    1055.4677   -215.93909 
  796000    1000.9404   -32256.914    1086.6769   -31170.237    950.91715     1032.379    1061.0578   -81.461875 
  800000    1001.6471   -32257.684    1087.4441    -31170.24    897.03503    1102.0256    1066.9153   -204.99053 
  804000    1009.7397   -32266.494    1096.2299   -31170.264    917.17623    1069.5581    1072.2608   -152.38191 
  808000    994.69233   -32250.132    1079.8937   -31170.238    893.39991    1101.3463     1077.696    -207.9464 
  812000    1002.9659   -32259.123    1088.8759   -31170.247    981.22015     1122.798    1082.6533   -141.57782 
  816000       1007.1   -32263.608    1093.3641   -31170.244    890.95737    1079.0177     1087.966   -188.06037 
  820000    1004.5465    -32260.84    1090.5919   -31170.248    864.60687    1153.2776    1093.5875   -288.67073 
  824000    1003.1057   -32259.301    1089.0277   -31170.274    885.73244    1089.9862    1098.8432   -204.25376 
  828000    990.69328   -32245.813    1075.5521   -31170.261    977.52232    1024.9358    1104.1555   -47.413485 
  832000    1001.6933    -32257.74    1087.4943   -31170.246    882.48139     1050.438    1108.9417   -167.95662 
  836000     996.9225   -32252.536    1082.3149   -31170.221    929.46984    1089.5917    1114.3342   -160.12189 
  840000    1008.2543   -32264.843    1094.6173   -31170.226    886.01795    1253.7667    1119.8259   -367.74871 
  844000    1008.3167   -32264.899     1094.685   -31170.214    1070.3476    1162.6749    1125.5342   -92.327306 
  848000    1011.8297   -32268.721    1098.4989   -31170.222    916.48728    1183.4506     1131.225   -266.96328 
  852000    987.66223   -32242.501    1072.2614    -31170.24    890.50471    1057.2588    1136.6865    -166.7541 
  856000    1005.1582   -32261.483     1091.256   -31170.227    907.74722    1158.3761    1142.0987   -250.62885 
  860000    999.21542   -32255.036    1084.8042   -31170.232    893.66957    1091.6774    1147.4132   -198.00779 
  864000    1011.0128    -32267.83    1097.6121   -31170.218    998.44623    1117.2135    1153.2807   -118.76724 
  868000     995.0792   -32250.529    1080.3137   -31170.216    873.66978    1160.5569    1159.3035   -286.88713 
  872000     997.9032   -32253.582    1083.3796   -31170.203    888.44202    1095.8493    1164.6581   -207.40724 
  876000    1006.3163    -32262.74    1092.5132   -31170.227    923.64675    1096.8962    1169.3408   -173.24945 
  880000    1006.6434   -32263.074    1092.8684   -31170.206     1060.215    1105.8108    1174.2805   -45.595736 
  884000    1002.9142   -32259.041    1088.8197   -31170.221    864.99968     1182.974    1179.9887   -317.97433 
  888000    997.62717   -32253.304    1083.0799   -31170.224    956.70308    1079.6593    1185.4629   -122.95627 
  892000     995.7381   -32251.237     1081.029   -31170.208    862.23911     1157.247    1191.1897   -295.00785 
  896000    1001.7642   -32257.791    1087.5712    -31170.22    896.47989    1129.6005    1196.8168   -233.12062 
  900000    1005.6127   -32261.953    1091.7495   -31170.204     833.3819    1083.8467    1202.1101   -250.46478 
  904000    1000.2467   -32256.133    1085.9237   -31170.209    932.34351    1109.3172    1206.8245   -176.97372 
  908000    1008.7093   -32265.304    1095.1113   -31170.193    921.41705    1126.7367    1211.8161   -205.31965 
  912000    996.40886   -32251.963    1081.7572   -31170.206    950.20323    1044.0268     1216.849   -93.823539 
  916000    998.78816   -32254.559    1084.3403   -31170.219    971.14915    1096.8344    1222.6693   -125.68524 
  920000    1005.6988    -32262.05    1091.8429   -31170.207     865.3972    1077.9652    1227.6865   -212.56804 
  924000    990.22631   -32245.252    1075.0451   -31170.207    991.01386    1177.1207    1233.0018   -186.10685 
  928000    1009.2113   -32265.879    1095.6562   -31170.223    934.80476    1115.4338     1238.385   -180.62905 
  932000    995.72764   -32251.229    1081.0176   -31170.212     883.5552    1126.5582    1244.6716   -243.00303 
  936000    989.85931   -32244.907    1074.6467    -31170.26    865.67571    1091.4944    1250.2486   -225.81869 
  940000    988.48452   -32243.367    1073.1541   -31170.213    835.69288    1129.4511    1255.7688   -293.75823 
  944000    987.63717    -32242.45    1072.2342   -31170.216    847.93715    1097.4667    1261.0863   -249.52955 
  948000     995.2051   -32250.666    1080.4503   -31170.216    974.03116    1085.5818    1266.3844   -111.55064 
  952000    1012.8277   -32269.785    1099.5824   -31170.203    856.46481     1088.802    1271.6066   -232.33719 
  956000    996.27007   -32251.813    1081.6065   -31170.207    941.74429    1153.4561    1276.7042   -211.71181 
  960000    1002.4411   -32258.517    1088.3062   -31170.211    927.79772    1095.2833     1282.184   -167.48554 
  964000    997.23734   -32252.863    1082.6567   -31170.206    949.49097    1123.2907    1287.0755   -173.79972 
  968000    1000.7645   -32256.696    1086.4859    -31170.21    833.90257    1050.2493    1292.8138   -216.34674 
  972000    1001.6571   -32257.631     1087.455   -31170.176    977.83067    1151.6907    1298.0774   -173.86003 
  976000    1014.5086   -32271.608    1101.4073   -31170.201    980.13835    1123.4673    1303.0818   -143.32899 
  980000     1003.542   -32259.698    1089.5013   -31170.197    929.96129    1058.0312    1309.1654    -128.0699 
  984000     990.8578   -32245.947    1075.7307   -31170.216    944.65439    1133.8122    1314.5324   -189.15777 
  988000     999.7409   -32255.571    1085.3747   -31170.197    900.11636    1112.2876    1319.6495    -212.1712 
  992000    1001.2459   -32257.213    1087.0085   -31170.205    939.40317    1084.3568    1324.9598   -144.95364 
  996000    992.59404    -32247.84    1077.6156   -31170.224    929.86815    1079.1677    1330.6861   -149.29951 
 1000000    1004.7809   -32261.034    1090.8463   -31170.188    995.13782    1192.4319    1335.7976   -197.29405 
 1004000    998.15771   -32253.849    1083.6559   -31170.193    1030.5061    1182.0641    1340.8748   -151.55797 
 1008000    1003.8368   -32260.022    1089.8214   -31170.201    862.81797    1167.7328    1345.8547   -304.91481 
 1012000    992.63107   -32247.824    1077.6558   -31170.169    942.34728    1105.0514    1351.2781   -162.70416 
 1016000    998.78881   -32254.563     1084.341   -31170.222    901.59116    1135.7372    1356.0047   -234.14605 
 1020000    1004.4466   -32260.673    1090.4834    -31170.19    890.41091    1077.3275    1361.3693   -186.91659 
 1024000    1000.7896   -32256.695    1086.5132   -31170.182    878.47487    1164.2602    1367.0616   -285.78531 
 1028000    991.06896   -32246.183    1075.9599   -31170.223    886.79736    1081.9716    1372.7981   -195.17421 
 1032000    982.59085   -32236.974    1066.7556   -31170.219    894.59196    1046.9042    1378.1741    -152.3122 
 1036000    1006.9303   -32263.391    1093.1798   -31170.212    1034.8035    1122.2839    1383.3451   -87.480386 
 1040000     1004.207   -32260.415    1090.2233   -31170.191    988.01036    1145.9984    1388.7886   -157.98809 
 1044000    1006.7005   -32263.115    1092.9304   -31170.184    1046.8584    1107.8597     1393.824   -61.001234 
 1048000    999.08219   -32254.857    1084.6595   -31170.198    898.43811     1071.956    1398.9156   -173.51792 
 1052000     1004.992    -32261.28    1091.0756   -31170.204    826.53664    1091.0552    1404.2548   -264.51861 
 1056000    992.67995   -32247.934    1077.7089   -31170.225    956.51512    1164.3415    1409.9529   -207.82642 
 1060000    995.39596   -32250.858    1080.6576     -31170.2    917.72351    1160.9647    1415.4095   -243.24123 
 1064000    997.48609   -32253.159    1082.9267   -31170.232    878.35336    1146.7526    1420.1585   -268.39928 
 1068000    992.34555   -32247.582    1077.3459   -31170.236    870.39111    1039.6268    1425.9354   -169.23567 
 1072000    1004.0798   -32260.303    1090.0852   -31170.218      995.853    992.39909    1431.7579    3.4539121 
 1076000    1005.1896   -32261.486      1091.29   -31170.196    854.45359    1094.1734    1437.3716   -239.71984 
 1080000    1002.0271   -32258.053    1087.8567   -31170.196    998.21564    1080.4739    1443.4472   -82.258259 
 1084000    996.96247   -32252.555    1082.3582   -31170.196    819.01561    1031.3601    1448.4893   -212.34454 
 1088000    998.51204   -32254.236    1084.0405   -31170.196    917.12424    1041.7252    1453.8687     -124.601 
 1092000     997.4761   -32253.121    1082.9159   -31170.205    923.42346    1107.8796    1458.9452   -184.45615 
 1096000    992.05991   -32247.271    1077.0358   -31170.235    1001.9085    1119.8074    1464.2949   -117.89889 
 1100000    1003.1659   -32259.324     1089.093   -31170.231    907.75551    1134.8663    1469.5861    -227.1108 
 1104000    1003.3844   -32259.569    1089.3303   -31170.238    1020.7624    1057.1101    1474.4874   -36.347697 
 1108000    990.58375   -32245.669    1075.4331   -31170.236    935.50449    1123.6299    1479.6533   -188.12536 
 1112000    999.31978   -32255.141    1084.9175   -31170.223    880.75277    1106.9839    1485.1682   -226.23117 
 1116000    1001.1932   -32257.171    1086.9514    -31170.22    924.29203    1150.8137    1490.4365   -226.52165 
 1120000    1005.6455   -32261.995     1091.785    -31170.21    893.01576    1045.8722    1496.1207   -152.85648 
 1124000    1005.0694   -32261.386    1091.1595   -31170.227     984.5657    1188.0124    1501.7812   -203.44667 
 1128000     1001.846    -32257.87    1087.6601    -31170.21    956.33595    1103.9582    1506.6224   -147.62228 
 1132000    991.24567   -32246.402    1076.1518    -31170.25    909.91319    1111.6177    1511.9967   -201.70454 
 1136000    1005.1071   -32261.416    1091.2006   -31170.215    855.18605    1195.7039    1517.6046   -340.51782 
 1140000    995.90413   -32251.489    1081.2093    -31170.28    969.75499    1166.5479     1522.811   -196.79291 
 1144000    998.76696   -32254.548    1084.3173   -31170.231    872.70996    1101.2937    1528.6615   -228.58369 
 1148000    1004.5617   -32260.871    1090.6084   -31170.262    913.99064    1247.4125    1533.7603   -333.42186 
 1152000    997.64118   -32253.339    1083.0951   -31170.244     919.9886    1117.4202    1538.8137    -197.4316 
 1156000    1005.3772   -32261.768    1091.4938   -31170.274    927.43808    1086.5959    1544.6473   -159.15778 
 1160000    1006.1603   -32262.589    1092.3439   -31170.246    791.33451    1135.3438    1549.7157   -344.00926 
 1164000    999.44178   -32255.307    1085.0499   -31170.257    865.99523    1113.2209    1555.1339   -247.22563 
 1168000     1008.901   -32265.539    1095.3194   -31170.219    981.79875    1194.9329    1560.5562   -213.13414 
 1172000    995.34768   -32250.845    1080.6051   -31170.239     982.7811    1153.6046    1565.5977   -170.82347 
 1176000    1006.9093   -32263.376     1093.157   -31170.219    961.76637    1163.8352    1570.9925   -202.06878 
 1180000    1000.5696    -32256.51    1086.2743   -31170.235    923.31939    1173.6579    1575.8403   -250.33852 
 1184000    1002.8362   -32258.945    1088.7351    -31170.21    936.57659    1140.2715    1581.0571   -203.69493 
 1188000    1001.8125   -32257.863    1087.6237    -31170.24    872.94494    1139.3137    1586.4024   -266.36873 
 1192000     1002.941   -32259.073    1088.8488   -31170.225    840.47143    1199.4539    1591.4821   -358.98249 
 1196000    1017.1135    -32274.44    1104.2353   -31170.205    928.42642    1250.8045    1596.6028   -322.37803 
 1200000    1003.8763   -32260.061    1089.8643   -31170.196    937.56089     1051.743    1602.7381   -114.18207 
 1204000    1009.8938   -32266.623    1096.3972   -31170.226    789.23287    1131.1824    1607.8897   -341.94955 
 1208000    1004.9757   -32261.285    1091.0579   -31170.227    972.75136    1162.7326    1613.9124   -189.98126 
 1212000    1002.5169   -32258.612    1088.3885   -31170.224    924.12955    1118.2254    1619.3531   -194.09583 
 1216000     1003.841   -32260.077    1089.8259   -31170.251    986.64884    1176.0994    1624.7965   -189.45052 
 1220000    1005.6289   -32261.989     1091.767   -31170.222    884.61393    1207.1061    1630.1524    -322.4922 
 1224000    1000.1545   -32256.069    1085.8237   -31170.245    939.82938    1034.3277    1635.5993    -94.49837 
 1228000    1001.0314   -32257.025    1086.7757   -31170.249    1002.9811    1053.6659    1640.9387   -50.684804 
 1232000    1005.2566   -32261.602    1091.3628   -31170.239    936.74996    1080.3032    1646.4548   -143.55327 
 1236000    1013.4655   -32270.517    1100.2749   -31170.242    1035.4554    1094.7404    1651.3651   -59.284938 
 1240000    1000.6946   -32256.716      1086.41   -31170.306    894.79383    1159.4927    1657.9029   -264.69886 
 1244000    1002.0585   -32258.169    1087.8908   -31170.278    945.20479    1126.2715    1663.5818   -181.06675 
 1248000    1011.5749     -32268.5    1098.2223   -31170.277    786.77994    1050.0791     1668.898   -263.29919 
 1252000    999.12574   -32255.002    1084.7068   -31170.295    904.11074     1065.239    1674.6014    -161.1283 
 1256000    998.57365   -32254.388    1084.1074   -31170.281    934.98663    1057.6881    1679.6665   -122.70142 
 1260000    998.76802   -32254.556    1084.3185   -31170.238    978.40541    1044.6247    1685.2086   -66.219286 
 1264000    1003.0524   -32259.231    1088.9698   -31170.261    930.21861    1044.2179    1690.2847    -113.9993 
 1268000    993.39249   -32248.768    1078.4825   -31170.285    901.93044    1079.9363    1695.3984   -178.00584 
 1272000    1005.3811   -32261.735     1091.498   -31170.237    961.62823    1069.3492     1700.624   -107.72092 
 1276000    996.97294   -32252.618    1082.3696   -31170.248    989.50796     1120.227    1705.4203   -130.71906 
 1280000    996.67453   -32252.329    1082.0456   -31170.283    906.43043    1039.7801     1711.082   -133.34967 
 1284000    994.18341   -32249.612    1079.3411   -31170.271    859.35766    979.80123     1716.554   -120.44357 
 1288000    1000.1669    -32256.12    1085.8372   -31170.283    872.02457     1079.531    1721.6347   -207.50644 
 1292000    1002.1008   -32258.226    1087.9367    -31170.29    781.21666    1014.0261    1727.0923   -232.80943 
 1296000    998.84589   -32254.667     1084.403   -31170.264    923.62895    1099.1444     1732.588   -175.51544 
 1300000    1002.3697    -32258.49    1088.2286   -31170.262    984.94604    1007.8174    1738.6006   -22.871359 
 1304000     998.1119   -32253.881    1083.6061   -31170.275     978.4963    1115.2295    1743.8018   -136.73321 
 1308000    989.74253   -32244.804    1074.5199   -31170.284    871.82675    1121.0046    1748.5767   -249.17786 
 1312000    1010.0997   -32266.875    1096.6207   -31170.255     938.9392    1135.6617    1753.7115   -196.72247 
 1316000    1009.9782   -32266.772    1096.4889   -31170.283    936.67522    1187.4949    1758.9259   -250.81965 
 1320000    998.43983   -32254.224    1083.9621   -31170.262     832.7337    1061.4019    1764.3722   -228.66823 
 1324000     1008.348   -32264.988     1094.719   -31170.269    830.50375    1124.8134    1769.8069    -294.3097 
 1328000    1005.8176   -32262.242    1091.9719   -31170.271    865.21772    1123.6067    1774.9115   -258.38895 
 1332000    997.59753   -32253.323    1083.0477   -31170.275    966.34851    1123.1777    1779.8631   -156.82916 
 1336000    992.32872   -32247.624    1077.3276   -31170.296    859.11278    1039.2626    1784.7678    -180.1498 
 1340000    996.39163   -32252.029    1081.7385    -31170.29    922.87119     1112.134    1789.6408   -189.26279 
 1344000    1006.5915   -32263.096     1092.812   -31170.284    893.25716     1053.916    1794.2886   -160.65881 
 1348000    995.45488   -32251.015    1080.7215   -31170.293    997.41548    1073.3406    1799.2478   -75.925163 
 1352000    1000.8668   -32256.882    1086.5971   -31170.284    938.61728    1051.5139    1804.5787   -112.89666 
 1356000    998.10737   -32253.868    1083.6012   -31170.267    968.21889    1129.2046    1810.1797   -160.98573 
 1360000    1003.3655   -32259.574    1089.3097   -31170.264    1001.5467     1119.802    1815.9555   -118.25532 
 1364000    1000.0858   -32256.031    1085.7491   -31170.281    914.56869    1115.8136    1822.3605   -201.24491 
 1368000    998.99931   -32254.858    1084.5695   -31170.288    971.86655    1188.2597     1827.737   -216.39312 
 1372000    1005.0247   -32261.381    1091.1111    -31170.27    903.24865     1080.607    1833.5801   -177.35833 
 1376000    994.53832   -32250.016    1079.7264    -31170.29    971.82139    1107.0273    1838.9952    -135.2059 
 1380000    1005.0873   -32261.453    1091.1791   -31170.274    963.49693    1068.9443    1844.1176   -105.44737 
 1384000    997.66461   -32253.403    1083.1205   -31170.283     853.7492    1113.1219    1850.0742    -259.3727 
 1388000    1003.5278   -32259.736    1089.4859    -31170.25    772.57486    1133.2175     1855.374   -360.64261 
 1392000    999.58149   -32255.469    1085.2016   -31170.268    886.56104    1118.8389    1860.1641   -232.27788 
 1396000    994.35041   -32249.814    1079.5224   -31170.292    949.91549    1055.1976    1865.0754   -105.28213 
 1400000    999.35225   -32255.223    1084.9527    -31170.27    937.16692    1086.5143     1870.928   -149.34737 
 1404000    1011.2887   -32268.185    1097.9116   -31170.273    876.28343    1094.8174    1876.4781   -218.53396 
 1408000    1005.2693   -32261.642    1091.3766   -31170.265    1067.0411    1079.6471    1881.3672   -12.605978 
 1412000     999.5211   -32255.403     1085.136   -31170.267    803.42861    1113.0496    1887.0296   -309.62101 
 1416000    996.09385   -32251.681    1081.4152   -31170.266    851.16397    1077.6836    1892.9686   -226.51965 
 1420000    1004.9578   -32261.315    1091.0384   -31170.277    895.26327    1104.2507    1898.2104   -208.98741 
 1424000    1006.5562   -32263.053    1092.7738    -31170.28    918.57396    1134.1572    1903.3274   -215.58325 
 1428000    996.10764   -32251.685    1081.4302   -31170.255    857.82901    1110.4761    1908.0916   -252.64705 
 1432000    999.10988   -32254.958    1084.6896   -31170.268     906.2119    1079.0915    1913.5437   -172.87961 
 1436000    1007.4131   -32263.975     1093.704   -31170.271    940.75282    1109.0656     1918.889   -168.31283 
 1440000    994.44644   -32249.901    1079.6267   -31170.274    936.12923    1127.0486    1924.2967   -190.91935 
 1444000    1001.9593   -32258.062    1087.7831   -31170.278    981.94529    1237.7224    1930.0034   -255.77708 
 1448000    997.23665    -32252.96    1082.6559   -31170.304    906.38949    1132.2644    1934.9999   -225.87493 
 1452000    1006.0438   -32262.495    1092.2175   -31170.278    978.25309    1113.4628    1940.6228   -135.20971 
 1456000    1012.2444   -32269.233    1098.9491   -31170.284    947.78593    1222.9666     1945.828   -275.18064 
 1460000    1005.3179   -32261.703    1091.4293   -31170.274    939.47418    1086.8705    1951.3788   -147.39633 
 1464000    1000.0635   -32256.023    1085.7249   -31170.298    891.78395     1113.808    1957.0931   -222.02401 
 1468000     1001.861   -32257.973    1087.6763   -31170.296    922.23935    1144.8255    1962.2953   -222.58617 
 1472000     1011.269    -32268.13    1097.8902    -31170.24    1032.3128    1129.3193    1968.1799    -97.00646 
 1476000    998.09871   -32253.874    1083.5918   -31170.282    945.21033    1060.3654    1972.5552   -115.15504 
 1480000    999.10316   -32254.975    1084.6823   -31170.292    966.36331    1117.2016    1978.2748   -150.83827 
 1484000     999.0936    -32254.95    1084.6719   -31170.278    904.52611    1111.2625    1983.0943   -206.73642 
 1488000    1004.8219   -32261.153    1090.8908   -31170.262    930.06751    1077.8865     1988.359   -147.81904 
 1492000    1004.7742   -32261.109    1090.8391   -31170.269    901.05106    1152.2076    1993.6088   -251.15656 
 1496000    996.81098   -32252.455    1082.1938   -31170.261    952.96988    1122.3696    1999.0469    -169.3997 
 1500000     1003.708   -32259.922    1089.6816   -31170.241    896.66694    1120.8635    2003.9591   -224.19655 
 1504000    1008.2498   -32264.836    1094.6124   -31170.224    883.09562    1075.5382    2009.0019   -192.44259 
 1508000    995.78031   -32251.348    1081.0748   -31170.273    931.79976    1098.6417    2013.8369   -166.84199 
 1512000    996.71281   -32252.346    1082.0872   -31170.259    941.96929    1061.3782    2018.8538   -119.40891 
 1516000    989.29987   -32244.303    1074.0393   -31170.264    925.87186    1087.7772    2023.8688    -161.9053 
 1520000    995.53911   -32251.064     1080.813   -31170.251    961.29794    1167.3979    2029.0503   -206.09993 
 1524000    1000.1313   -32256.062    1085.7985   -31170.264    992.97046    1133.2644    2034.3246   -140.29399 
 1528000    992.12155    -32247.34    1077.1027   -31170.238    969.26753    1027.9249    2039.3206   -58.657399 
 1532000    1002.0504   -32258.169     1087.882   -31170.287    990.66473    1108.0429    2044.3722   -117.37816 
 1536000     988.7713   -32243.695    1073.4654    -31170.23    999.35855    1052.1977    2049.3748   -52.839132 
 1540000    1004.4465   -32260.724    1090.4833   -31170.241    961.76481    1008.0002    2055.2444   -46.235422 
 1544000    997.72008   -32253.407    1083.1807   -31170.227    890.33728    1085.6323    2061.0031   -195.29505 
 1548000    1006.7243   -32263.174    1092.9563   -31170.218    929.29981     1139.076    2066.2538   -209.77618 
 1552000    1003.6513   -32259.859      1089.62   -31170.239    914.07184    1177.0721    2071.1554   -263.00023 
 1556000    994.82744   -32250.278    1080.0403   -31170.237    1016.9645    1104.3608    2075.7186   -87.396229 
 1560000    1002.0818   -32258.153    1087.9161   -31170.237      962.526    1091.7737    2081.2905   -129.24775 
 1564000    995.19731   -32250.685    1080.4419   -31170.243    1017.5862    1003.2506    2086.8884    14.335571 
 1568000    1002.8428   -32258.968    1088.7422   -31170.226    906.40559    1041.3454    2092.6496   -134.93978 
 1572000    1011.1259   -32267.958    1097.7348   -31170.223    995.86792    1049.6745    2098.4621   -53.806533 
 1576000    1000.4755   -32256.395    1086.1722   -31170.223    939.74081    1080.8125    2104.3967   -141.07168 
 1580000    1000.2454   -32256.119    1085.9224   -31170.197    942.37554    1094.0612    2109.9851   -151.68566 
 1584000     1003.288   -32259.435    1089.2255   -31170.209    817.19778    1025.7873     2114.974   -208.58951 
 1588000    1001.0849   -32257.058    1086.8338   -31170.224    886.62044    1061.5403    2120.0022    -174.9199 
 1592000    1004.3942   -32260.635    1090.4265   -31170.208    1017.4083    1077.1834    2124.9063   -59.775029 
 1596000    1000.4445   -32256.372    1086.1386   -31170.233    950.23396    1081.7055    2130.1658   -131.47151 
 1600000    1005.7037   -32262.059    1091.8482   -31170.211    1027.3308    1105.2638    2135.3653    -77.93293 
 1604000    1000.5275   -32256.467    1086.2287   -31170.238    902.09764    1037.0871    2140.2614   -134.98942 
 1608000    1000.3417   -32256.247    1086.0269    -31170.22    946.98661    1170.0202    2145.0652   -223.03363 
 1612000     997.7456   -32253.434    1083.2085   -31170.225    973.66044    1117.2625    2150.3372   -143.60209 
 1616000    996.13418   -32251.676     1081.459   -31170.217    909.36924     1102.088    2155.5676   -192.71873 
 1620000    1011.0074   -32267.831    1097.6063   -31170.225    932.36038    1101.5613    2161.3111   -169.20089 
 1624000    991.60995    -32246.79    1076.5473   -31170.243    790.20402    1149.8528    2166.9444   -359.64877 
 1628000    1007.7772   -32264.332    1094.0994   -31170.233    1026.9056    1088.6417    2171.9089   -61.736125 
 1632000    1007.1327   -32263.624    1093.3996   -31170.225    964.67704    1083.4612      2177.46   -118.78412 
 1636000    991.73925   -32246.932    1076.6876   -31170.244    946.34734    1027.1866    2182.3576   -80.839235 
 1640000    1000.2051   -32256.099    1085.8786   -31170.221    867.94187    1086.3864    2188.0163   -218.44457 
 1644000    1003.1967    -32259.37    1089.1265   -31170.244    839.06561    1097.3495    2193.9924   -258.28391 
 1648000    1003.2621    -32259.46    1089.1975   -31170.262     867.6573    1086.7222    2198.8461   -219.06488 
 1652000    996.04585    -32251.58    1081.3631   -31170.217    914.32966    1099.6287    2204.0448   -185.29903 
 1656000    1018.5886   -32276.095    1105.8368   -31170.258    852.70577    1142.2926    2209.1456   -289.58681 
 1660000    1009.8059   -32266.559    1096.3018   -31170.257    959.49618    1094.8503    2215.0208   -135.35412 
 1664000     998.4483   -32254.221    1083.9713    -31170.25    892.11383    1147.0606    2220.0262   -254.94681 
 1668000     1004.792   -32261.106    1090.8585   -31170.247    980.42055    1083.5048    2225.6655   -103.08428 
 1672000    997.22314   -32252.915    1082.6412   -31170.274    887.22868    1084.2174    2230.3917   -196.98874 
 1676000    1011.3132    -32268.21    1097.9382   -31170.272    908.91368    1096.6511    2236.3382   -187.73743 
 1680000    1000.4399   -32256.408    1086.1335   -31170.274    893.61874     1061.176    2241.5063   -167.55729 
 1684000    1005.9868   -32262.399    1092.1555   -31170.243    871.16172    1163.9592    2246.8449   -292.79746 
 1688000    995.02236   -32250.526     1080.252   -31170.274    951.43568    1091.9117     2251.875   -140.47603 
 1692000    1004.9045   -32261.259    1090.9806   -31170.278    846.30911    1101.0924    2257.0722   -254.78332 
 1696000     994.5796   -32250.055    1079.7713   -31170.284    881.44736    1126.0833    2262.3447   -244.63595 
 1700000    996.77646   -32252.412    1082.1563   -31170.256    812.26808    1196.6137    2268.0864    -384.3456 
 1704000    1005.9722   -32262.426    1092.1397   -31170.287      901.701    1147.4531    2273.0019   -245.75209 
 1708000    1005.3276   -32261.718    1091.4399   -31170.278    880.08818    1070.1863    2277.8562   -190.09813 
 1712000    991.78577   -32247.032    1076.7381   -31170.294     831.4585    1070.9382     2283.774   -239.47966 
 1716000    993.02455   -32248.354     1078.083   -31170.271    955.81782    1069.9458    2288.9951   -114.12796 
 1720000    989.32591   -32244.369    1074.0676   -31170.301    934.74236    1053.5755    2294.6663   -118.83312 
 1724000    988.92609   -32243.908    1073.6335   -31170.275    913.58875    1061.8368    2300.3845   -148.24804 
 1728000    995.22355   -32250.753    1080.4704   -31170.283    985.47658    1076.5565    2305.7128   -91.079905 
 1732000     996.6079   -32252.241    1081.9733   -31170.268    940.89829    1125.6785    2311.4918   -184.78018 
 1736000    1001.1388   -32257.158    1086.8923   -31170.266    926.23228    1093.1659    2317.3699   -166.93367 
 1740000    998.27353   -32254.038    1083.7816   -31170.257    917.95104    1116.1034    2322.9397   -198.15239 
 1744000    1010.6537    -32267.48    1097.2222   -31170.258    909.40918    1095.2344    2328.6438   -185.82522 
 1748000    991.17503   -32246.359    1076.0751   -31170.284    947.82907    1130.0725    2333.5446    -182.2434 
 1752000    995.48528   -32251.039    1080.7545   -31170.284      967.393    1132.6407      2338.59   -165.24768 
 1756000    987.45222   -32242.322    1072.0334   -31170.289     1034.164    1062.1734    2343.5632   -28.009358 
 1760000    1002.5797   -32258.733    1088.4566   -31170.276    1037.1605     1084.777    2349.0488   -47.616543 
 1764000     1009.718   -32266.511    1096.2063   -31170.304    982.34163    1080.2527    2354.2384   -97.911041 
 1768000    990.78115   -32245.972    1075.6475   -31170.324    935.35158    1152.6117    2359.3265   -217.26012 
 1772000    999.74553   -32255.672    1085.3797   -31170.293     1061.966    1061.0887    2364.7294   0.87733793 
 1776000    1018.1819   -32275.665    1105.3952   -31170.269    1017.3718    1154.4731    2370.0847   -137.10129 
 1780000    999.14196   -32254.995    1084.7244   -31170.271    1015.9984    1100.0202    2375.9176   -84.021787 
 1784000    1002.3732   -32258.544    1088.2325   -31170.311    970.40199     1057.574    2381.8559   -87.171988 
 1788000    998.30869   -32254.122    1083.8198   -31170.302    1109.5093    1023.6726    2387.4211    85.836775 
 1792000    1008.9573   -32265.669    1095.3805   -31170.288    896.85761    1143.2504    2392.5064   -246.39278 
 1796000     1003.181   -32259.377    1089.1095   -31170.267    950.00206    1106.3261    2398.1592   -156.32404 
 1800000     995.3332   -32250.869    1080.5894    -31170.28    750.00058    1132.9173    2403.5239   -382.91675 
 1804000    999.25874   -32255.139    1084.8512   -31170.288    862.00132    1178.2486    2408.8877   -316.24731 
 1808000    1003.6073   -32259.869    1089.5723   -31170.296    963.65918    1135.2376    2414.0938   -171.57841 
 1812000    998.78671   -32254.617    1084.3387   -31170.278    990.74617    1105.6462    2419.3951   -114.90002 
 1816000    1002.6661   -32258.845    1088.5504   -31170.294    1026.0536    1121.8258    2424.8001   -95.772233 
 1820000    1001.6787   -32257.794    1087.4785   -31170.315    952.05082    1175.8645    2429.7844    -223.8137 
 1824000    1009.1135   -32265.793    1095.5501   -31170.243    902.65353      1086.46    2435.3221   -183.80646 
 1828000    999.76152   -32255.651    1085.3971   -31170.254     961.1234    971.55152    2440.4444   -10.428121 
 1832000    1005.7694   -32262.194    1091.9195   -31170.275    881.00343    1086.4634     2445.924   -205.45997 
 1836000    1004.0601   -32260.341    1090.0639   -31170.277    942.07692    1071.2825     2451.406    -129.2056 
 1840000    993.26692   -32248.626    1078.3462    -31170.28     928.9717    1107.5647    2456.5485   -178.59303 
 1844000    994.69401   -32250.165    1079.8955   -31170.269    785.80783    1136.5157    2461.9807   -350.70786 
 1848000     994.6805   -32250.188    1079.8808   -31170.308    930.38207    1063.1669    2467.6328    -132.7848 
 1852000    1000.2517   -32256.205    1085.9292   -31170.275    846.92051    1068.9095    2472.5499   -221.98897 
 1856000    996.01833   -32251.634    1081.3332   -31170.301    887.03592    1082.1541    2477.4167   -195.11821 
 1860000    999.60991   -32255.528    1085.2325   -31170.296    951.44575    1141.4114    2483.1542   -189.96568 
 1864000    998.46856     -32254.3    1083.9933   -31170.307    964.47763     1080.047    2488.8064   -115.56941 
 1868000    997.82227   -32253.582    1083.2917    -31170.29    978.36072    1009.2033    2494.1399   -30.842553 
 1872000    1003.4879   -32259.718    1089.4426   -31170.276    1034.1107    1167.0367    2499.7009   -132.92595 
 1876000    998.44818   -32254.244    1083.9712   -31170.273    941.05778    1065.1088    2504.9978   -124.05099 
 1880000    1010.4504   -32267.269    1097.0015   -31170.268    1016.3696    1141.7443    2510.0279   -125.37467 
 1884000    1002.2813   -32258.418    1088.1326   -31170.285    915.18093    1144.8995    2515.5876   -229.71861 
 1888000    995.49951   -32251.076      1080.77   -31170.306     903.3102    1017.3581    2520.2732   -114.04787 
 1892000    1013.5689   -32270.685    1100.3871   -31170.298    850.37799    1120.4586    2525.5269   -270.08065 
 1896000    1000.6676   -32256.663    1086.3807   -31170.282    880.61065    1159.7845    2530.7408   -279.17386 
 1900000    1005.1408   -32261.529    1091.2371   -31170.292      829.286    1154.9301    2535.8411    -325.6441 
 1904000    999.08989    -32254.96    1084.6679   -31170.292    892.12436    1116.8773    2541.3362   -224.75295 
 1908000    1008.5758   -32265.284    1094.9663   -31170.318     916.4844    1131.3193    2546.2597   -214.83493 
 1912000    1005.9227   -32262.402     1092.086   -31170.316    900.79981    1120.8193    2551.7188   -220.01947 
 1916000     996.9213   -32252.601    1082.3135   -31170.288     869.8665    1058.6667    2557.2881   -188.80019 
 1920000    1003.8119     -32260.1    1089.7944   -31170.306    940.26224    1092.4242    2562.3524   -152.16193 
 1924000    1006.7231   -32263.242    1092.9549   -31170.287    900.95476    1103.4435    2567.8487   -202.48873 
 1928000    1000.7608   -32256.739    1086.4819   -31170.258    946.41764    1123.9876    2573.3762   -177.56997 
 1932000    997.02376   -32252.692    1082.4248   -31170.267    987.39077     1137.702    2578.5694   -150.31119 
 1936000    1008.6385   -32265.288    1095.0344   -31170.254    929.33502    1126.5447    2584.6301   -197.20964 
 1940000    999.21812   -32255.055    1084.8071   -31170.248    866.93134    1081.5583    2589.8761   -214.62699 
 1944000    995.49548   -32251.035    1080.7656   -31170.269    864.12705    1121.4837    2595.4917   -257.35664 
 1948000    997.84852   -32253.564    1083.3202   -31170.243    869.40441    1054.5157    2600.6442    -185.1113 
 1952000    1003.9529    -32260.22    1089.9474   -31170.272    957.93077    1124.4828    2605.6185     -166.552 
 1956000    997.64988    -32253.37    1083.1045   -31170.265    932.33581    1071.8502    2610.1855   -139.51444 
 1960000    1003.0053   -32259.163    1088.9186   -31170.244    914.98718    1190.7424    2614.7519   -275.75523 
 1964000    1000.9236    -32256.89    1086.6587   -31170.231     906.3643    1213.8396    2619.9236   -307.47531 
 1968000    992.25448   -32247.482     1077.247   -31170.235    907.23622    1077.6979    2624.9439   -170.46165 
 1972000    998.47026   -32254.242    1083.9952   -31170.247    1046.9557    1103.1975     2630.946   -56.241778 
 1976000    1000.1238   -32256.026    1085.7903   -31170.235     991.5933    1081.9953    2636.8097   -90.402018 
 1980000    1003.9226   -32260.138    1089.9145   -31170.224    874.95514     1067.452    2642.3139   -192.49687 
 1984000    999.00383   -32254.836    1084.5745   -31170.261    945.98329    1131.7476    2647.6493   -185.76428 
 1988000    985.64548   -32240.296    1070.0719   -31170.224    993.85764    1125.2399    2653.2759   -131.38227 
 1992000    1000.0022   -32255.926    1085.6584   -31170.268    931.24984    1061.7179    2659.0376   -130.46804 
 1996000    990.15168   -32245.202    1074.9641   -31170.238    933.62302     1237.178    2664.4016     -303.555 
 2000000    996.33416   -32251.924    1081.6761   -31170.248    842.51036    1151.3631    2670.1514   -308.85274 
 2004000    1002.2764   -32258.375    1088.1274   -31170.247    855.21247    1073.5982     2675.781   -218.38572 
 2008000    997.79089   -32253.498    1083.2576   -31170.241    912.19607    1175.3033    2681.0472   -263.10728 
 2012000    1001.6424   -32257.685    1087.4391   -31170.246    846.68729    1131.8663    2686.2275   -285.17905 
 2016000    1007.5177   -32264.057    1093.8176    -31170.24    953.64579    1106.3359    2692.0328   -152.69006 
 2020000    1000.0705   -32255.988    1085.7325   -31170.256    885.33139    1120.1812    2697.9946   -234.84981 
 2024000    1003.7549   -32259.991    1089.7325   -31170.258    897.38574    1182.1435    2703.5573    -284.7578 
 2028000    1009.2861   -32266.018    1095.7375   -31170.281    866.70553    1111.6423    2709.1362   -244.93681 
 2032000    1000.9313   -32256.937     1086.667    -31170.27     949.7197    1116.1825    2713.9464   -166.46278 
 2036000    1004.1946   -32260.478    1090.2098   -31170.268     1009.396    1198.4607    2718.8956   -189.06469 
 2040000    1004.6927   -32261.044    1090.7506   -31170.293    966.29582    1118.6368    2724.1356   -152.34095 
 2044000    1001.4623   -32257.521    1087.2435   -31170.278    843.85293    1165.9143    2729.0892   -322.06134 
 2048000    1005.0462   -32261.395    1091.1344    -31170.26    934.22105    1047.5711    2733.5801   -113.35009 
 2052000    1009.6678   -32266.415    1096.1519   -31170.263    878.93803    1144.9552    2738.3764   -266.01717 
 2056000     1006.789   -32263.288    1093.0265   -31170.262     1031.582     1154.812    2743.3196   -123.22997 
 2060000    997.78153   -32253.537    1083.2475   -31170.289    951.87074     1065.461    2749.3555   -113.59025 
 2064000    1002.1286   -32258.244    1087.9669   -31170.277    833.47768     1124.046    2754.8285   -290.56829 
 2068000    992.51553   -32247.825    1077.5304   -31170.295    826.23131    1122.4438     2760.332   -296.21248 
 2072000    995.80667   -32251.404    1081.1034   -31170.301    965.33997    1074.3761    2765.2768   -109.03611 
 2076000    999.82123   -32255.743    1085.4619   -31170.281    964.50387    1035.5568    2770.2214   -71.052891 
 2080000    987.11744   -32241.938    1071.6699   -31170.268    848.05295    1057.9763    2775.4756   -209.92339 
 2084000    999.30049   -32255.183    1084.8965   -31170.287     979.6184    1133.7105    2780.6474   -154.09211 
 2088000    999.32036   -32255.147    1084.9181   -31170.229    1110.8192     1102.884    2786.1111    7.9352115 
 2092000    994.69683   -32250.148    1079.8985   -31170.249    1033.8189    1130.8623    2791.3701   -97.043471 
 2096000    1000.8727    -32256.87    1086.6034   -31170.266    899.78869    1090.9742    2796.7957   -191.18548 
 2100000    1003.8588   -32260.088    1089.8453   -31170.242    866.57372    1244.2203    2801.8991    -377.6466 
 2104000    987.50826   -32242.359    1072.0942   -31170.264    931.85774    1058.5304    2807.5155   -126.67265 
 2108000    1007.4004   -32263.949    1093.6903   -31170.259    918.30539    1103.4322    2812.5977   -185.12681 
 2112000    1012.5509   -32269.535    1099.2819   -31170.253    910.35604    1184.5148    2817.6029   -274.15872 
 2116000    997.69313   -32253.402    1083.1515   -31170.251    903.85346    1145.8965    2823.4318   -242.04303 
 2120000    1001.0323   -32257.038    1086.7766   -31170.261    897.33196     1106.105    2828.0984   -208.77307 
 2124000    993.08427   -32248.403    1078.1479   -31170.256    881.05129    1024.1585    2833.4618   -143.10719 
 2128000    988.26533   -32243.159    1072.9161   -31170.243    961.16873    1019.3646     2838.522    -58.19588 
 2132000    996.60554    -32252.21    1081.9707   -31170.239    887.76509    971.64629    2843.5619   -83.881203 
 2136000     1006.892   -32263.378    1093.1383    -31170.24    860.26129    1068.8589    2848.9398   -208.59758 
 2140000    999.09904   -32254.909    1084.6778   -31170.232    956.07931    1111.2079    2855.5173   -155.12863 
 2144000    1003.7182    -32259.95    1089.6926   -31170.257    890.60953    1170.0046    2860.9221   -279.39507 
 2148000    1006.4991   -32262.955    1092.7117   -31170.244    976.93505    1126.3584    2866.1333   -149.42336 
 2152000    1004.8128   -32261.104    1090.8811   -31170.223    877.08432    1199.8448    2871.3041   -322.76045 
 2156000    997.66402    -32253.37    1083.1199    -31170.25    859.00835    1070.6937    2876.3775   -211.68538 
 2160000     1009.666   -32266.393    1096.1499   -31170.244    966.00763    1087.3388    2881.6006   -121.33116 
 2164000     1006.863   -32263.338    1093.1068   -31170.231    833.34896    1179.3045      2886.36   -345.95557 
 2168000    998.42167   -32254.145    1083.9424   -31170.203    928.44209    1103.8214     2891.363   -175.37929 
 2172000    1004.3789   -32260.637      1090.41   -31170.227    939.54721     1139.053    2896.7406   -199.50577 
 2176000    1000.0288   -32255.898    1085.6872   -31170.211    979.03829    1142.2123    2902.1652   -163.17397 
 2180000    1001.1802   -32257.152    1086.9373   -31170.215    963.77024    1100.3272    2907.2811   -136.55691 
 2184000    992.83423   -32248.086    1077.8764    -31170.21    871.74149    1105.6221    2912.4592   -233.88057 
 2188000    993.23493   -32248.519    1078.3114   -31170.207    1005.6853    1019.9468     2917.779   -14.261452 
 2192000    995.29148   -32250.727    1080.5441   -31170.183    850.65658    1009.9844     2923.205   -159.32781 
 2196000    991.59331   -32246.756    1076.5292   -31170.227    904.94433    1104.8799    2928.2474   -199.93553 
 2200000    1004.8292   -32261.069    1090.8988   -31170.171     923.3211    1064.2383    2933.7129   -140.91724 
 2204000    996.20977   -32251.712    1081.5411   -31170.171    903.54966    1084.8544    2938.5639   -181.30478 
 2208000    1007.0291   -32263.478    1093.2871   -31170.191    864.88172    1110.2443    2944.1417   -245.36261 
 2212000    1003.5291   -32259.684    1089.4873   -31170.197     953.0964    1138.1775    2950.1017   -185.08109 
 2216000    996.10352   -32251.609    1081.4257   -31170.184    875.22207    1124.2711    2955.3608     -249.049 
 2220000    993.79837    -32249.13    1078.9231   -31170.207    907.61394    1105.1327     2961.139   -197.51874 
 2224000    1004.6131   -32260.866    1090.6642   -31170.202     975.5091    1059.4069    2966.2976   -83.897788 
 2228000    1001.6135   -32257.646    1087.4077   -31170.238    934.35934    1145.7263    2971.1874   -211.36694 
 2232000    994.53153   -32249.902    1079.7191   -31170.183    962.01097    1082.7225    2976.9637   -120.71157 
 2236000    1007.5586   -32264.054     1093.862   -31170.192    931.65177    1115.9336    2983.0655   -184.28182 
 2240000    999.58269    -32255.41    1085.2029   -31170.207    929.57951    1083.9211    2987.9816   -154.34159 
 2244000    994.23874   -32249.601    1079.4012   -31170.199    942.20847    1096.2938    2993.2923   -154.08535 
 2248000    999.66252   -32255.485    1085.2896   -31170.196    900.45436    1155.0536    2998.9487   -254.59924 
 2252000    1014.3848   -32271.452    1101.2729   -31170.179    928.37428    1067.2145    3004.4519   -138.84024 
 2256000    999.94936   -32255.802     1085.601   -31170.201     1001.423     1166.213     3009.198   -164.79003 
 2260000    993.76426    -32249.06    1078.8861   -31170.174     853.3337    1098.6958    3014.4649   -245.36215 
 2264000    1007.7427   -32264.231    1094.0618   -31170.169    907.14813     1144.591    3020.1086   -237.44286 
 2268000    998.32395   -32254.051    1083.8363   -31170.215     899.8168    1127.7934    3025.8111   -227.97664 
 2272000    1004.7009   -32260.946    1090.7595   -31170.187    848.50837    1133.8542    3030.6067    -285.3458 
 2276000    989.54786    -32244.51    1074.3085   -31170.201    850.79163    1156.6553    3035.4389   -305.86364 
 2280000    1002.1655   -32258.212    1088.0069   -31170.205    957.45634    1136.9315    3041.4156   -179.47516 
 2284000    1003.2776   -32259.407    1089.2143   -31170.193    997.35201     1158.231    3046.8652   -160.87899 
 2288000    999.80054    -32255.65    1085.4394   -31170.211    783.84778      1130.62    3051.8357   -346.77221 
 2292000    996.91137   -32252.504    1082.3028   -31170.201    987.03709    1125.8305    3056.6255   -138.79337 
 2296000    1003.6889   -32259.841    1089.6608   -31170.181    829.27465    1188.0322    3061.9934   -358.75752 
 2300000    998.77666   -32254.511    1084.3278   -31170.183    929.09043    1184.9761    3068.0843   -255.88571 
 2304000    988.87242   -32243.776    1073.5752   -31170.201    893.27662    1061.5874    3073.0425   -168.31082 
 2308000    1008.0861   -32264.635    1094.4347     -31170.2    917.42903    1152.0745    3078.4319   -234.64549 
 2312000    1003.3309   -32259.468    1089.2722   -31170.196    834.72766    1105.9726    3083.9141   -271.24499 
 2316000    1013.1054   -32270.087    1099.8839   -31170.203    876.98953     1129.652    3088.8308   -252.66242 
 2320000    1008.4337   -32265.014    1094.8121   -31170.201    928.44512     1142.019    3093.9866   -213.57392 
 2324000    995.33545    -32250.81    1080.5919   -31170.218    907.98143    1127.6199    3099.1813   -219.63849 
 2328000     1007.571   -32264.081    1093.8754   -31170.205    970.60718    1179.8461    3104.5343   -209.23892 
 2332000    993.25576   -32248.557     1078.334   -31170.223    932.79346    1153.4559      3109.53   -220.66246 
 2336000    1001.1978   -32257.157    1086.9564   -31170.201    966.38907    1071.4132    3115.1045   -105.02413 
 2340000    1014.8437   -32271.977    1101.7711   -31170.206    925.10853    1081.4338    3120.7253   -156.32531 
 2344000    998.50108   -32254.248    1084.0286    -31170.22    932.58027    1140.4624    3125.7845   -207.88216 
 2348000    993.61164   -32248.909    1078.7204   -31170.189    941.20269    1014.1599    3131.5874   -72.957192 
 2352000    990.66538   -32245.691    1075.5218   -31170.169    847.97806    1049.9372    3137.4059   -201.95917 
 2356000    994.40077   -32249.788    1079.5771   -31170.211    858.88888    984.38779    3142.9774   -125.49891 
 2360000    1000.4976   -32256.409    1086.1962   -31170.213    901.59968    1047.9719    3148.7175   -146.37223 
 2364000     995.6119    -32251.11     1080.892   -31170.218    954.64283     1026.795    3153.5067   -72.152182 
 2368000    1013.1993   -32270.208    1099.9858   -31170.222    880.83755    1005.9801    3158.5358    -125.1425 
 2372000    996.21369   -32251.774    1081.5453   -31170.229    916.60447    1091.6463    3163.5042   -175.04182 
 2376000    993.18689   -32248.496    1078.2593   -31170.237     930.4733    1140.8723    3169.1939     -210.399 
 2380000    1014.8844   -32272.017    1101.8153   -31170.201    998.84149     1152.485      3174.39   -153.64347 
 2384000    1015.8736   -32273.111    1102.8892   -31170.222    950.36451    1110.1099    3180.1893   -159.74534 
 2388000    1006.0726   -32262.465    1092.2488   -31170.217    850.08179    1192.5716    3185.8541   -342.48978 
 2392000    1000.8278   -32256.728    1086.5547   -31170.173    842.43474    1207.4364    3190.7665   -365.00161 
 2396000    998.25051   -32253.969    1083.7566   -31170.212    845.20267    1158.3446    3195.6207   -313.14188 
 2400000    999.43483   -32255.253    1085.0424    -31170.21    835.32163    1119.2845     3200.951   -283.96291 
 2404000    995.70497   -32251.223     1080.993    -31170.23    843.77457    1099.5474    3206.5377   -255.77284 
 2408000     1017.325   -32274.674     1104.465   -31170.209    1008.6301    1148.0017    3212.1548   -139.37163 
 2412000    1005.8173   -32262.207    1091.9715   -31170.235    1062.7636    1090.1247      3218.17   -27.361094 
 2416000    1000.5968    -32256.52    1086.3039   -31170.216    858.73744    1093.6587    3223.1817   -234.92124 
 2420000    996.62149    -32252.21    1081.9881   -31170.222    944.91148    1106.5462     3228.396   -161.63469 
 2424000     994.2121   -32249.597    1079.3723   -31170.225    964.37207     1094.273    3233.2977   -129.90089 
 2428000    996.80599   -32252.372    1082.1884   -31170.184    824.11754    1075.5945    3238.7458   -251.47694 
 2432000    1002.8751   -32259.003    1088.7773   -31170.226    912.97525    1205.2999    3243.7679   -292.32465 
 2436000    999.68474   -32255.523    1085.3137   -31170.209     1031.833    1055.6326    3249.6054     -23.7996 
 2440000    1007.7602   -32264.307    1094.0808   -31170.227    920.39415    1111.3354    3255.4378   -190.94126 
 2444000    1013.7581   -32270.788    1100.5925   -31170.195    865.70828    1161.0066    3260.5174   -295.29828 
 2448000    1007.7707   -32264.319    1094.0923   -31170.227    964.84816    1170.0461    3265.6552   -205.19799 
 2452000    1001.8373   -32257.856    1087.6506   -31170.205    949.47812     1182.282    3271.2826   -232.80392 
 2456000    1000.4188    -32256.34    1086.1107    -31170.23     932.2923     1131.472    3276.1821   -199.17975 
 2460000    996.61464     -32252.2    1081.9806   -31170.219    1005.8669    1165.6192     3282.165    -159.7523 
 2464000     996.3876   -32251.933    1081.7341   -31170.199    883.19677    1169.5806    3287.3709   -286.38379 
 2468000    1001.0932   -32257.022    1086.8428   -31170.179    879.95282     1067.677    3293.4218    -187.7242 
 2472000     1002.503    -32258.57    1088.3733   -31170.197    863.24825    1102.2156    3298.6383   -238.96737 
 2476000    997.19447     -32252.8    1082.6101    -31170.19    1020.9097    1111.2393    3303.8412   -90.329554 
 2480000    1001.7321   -32257.737    1087.5364   -31170.201    884.01008     1123.072    3309.2959   -239.06188 
 2484000    1004.8744   -32261.135    1090.9478   -31170.187    905.92419    1128.1754    3314.2945   -222.25116 
 2488000    1000.4051   -32256.316    1086.0958    -31170.22    985.03342    1029.6418    3319.2655   -44.608384 
 2492000    992.40188   -32247.622     1077.407   -31170.215    836.90983    1067.2557     3324.896   -230.34588 
 2496000    1007.9364   -32264.473    1094.2721   -31170.201    941.72039    1145.4878    3330.8632   -203.76744 
 2500000    1013.0801   -32270.054    1099.8565   -31170.198    978.87438    1144.2153    3336.2314   -165.34093 
 2504000    993.78708   -32249.118    1078.9109   -31170.207    947.72046    1145.1329    3342.3446    -197.4124 
 2508000    990.33472   -32245.368    1075.1628   -31170.205    956.57428    1124.2564    3348.0052   -167.68208 
 2512000     1001.141   -32257.128    1086.8947   -31170.233    944.08532    1083.2514    3353.4434   -139.16607 
 2516000    1004.1339   -32260.341     1090.144   -31170.197     836.0792    1061.2822    3358.2788   -225.20298 
 2520000    995.26489   -32250.717    1080.5153   -31170.202    920.79436     1123.407    3363.3821   -202.61262 
 2524000    994.78574   -32250.184    1079.9951   -31170.189    914.16534    1052.6058    3368.1922   -138.44045 
 2528000    1000.1586    -32256.03    1085.8282   -31170.202    842.59644    1192.9406    3373.4361   -350.34418 
 2532000     993.1031   -32248.352    1078.1683   -31170.183    850.97138    1139.5055    3379.3406   -288.53408 
 2536000    1005.1217   -32261.431    1091.2164   -31170.215    856.85189    1159.4464    3384.8835   -302.59447 
 2540000    998.29511   -32253.998     1083.805   -31170.193    898.95086    1090.0839     3390.256   -191.13303 
 2544000     1006.673   -32263.056    1092.9005   -31170.155    928.14105    1164.5182    3395.5222   -236.37712 
 2548000    996.03853   -32251.533    1081.3552   -31170.178    867.56178     1087.446    3401.5878   -219.88418 
 2552000    1003.8285   -32260.002    1089.8124   -31170.189    910.44331    1143.1379      3407.16    -232.6946 
 2556000    997.01256   -32252.605    1082.4126   -31170.192    860.53358    1094.7637    3412.1755   -234.23011 
 2560000    1008.5418   -32265.104    1094.9294   -31170.175    803.76322    1203.2219     3417.728   -399.45866 
 2564000    1000.8506   -32256.765    1086.5794   -31170.185    861.71711    1129.2981    3422.6914   -267.58098 
 2568000    1003.0583   -32259.178    1088.9762   -31170.202    913.03557    1111.2676    3428.0121   -198.23202 
 2572000    1002.4915   -32258.534    1088.3608   -31170.173    868.55351    1141.2909    3433.3449   -272.73743 
 2576000    991.68441   -32246.816    1076.6281   -31170.188    892.32941    1110.3237    3438.5028   -217.99433 
 2580000    1000.6399   -32256.558    1086.3507   -31170.208    950.43449    1040.8984    3443.7189   -90.463871 
 2584000     1002.151   -32258.186    1087.9912   -31170.195    910.37859     1059.459    3448.5931   -149.08043 
 2588000    1000.5546   -32256.445    1086.2581   -31170.187    994.10867    1178.4167    3453.6816   -184.30805 
 2592000    1001.7041   -32257.728     1087.506   -31170.222     940.0847    1131.8186    3458.6097    -191.7339 
 2596000    999.93968   -32255.804    1085.5905   -31170.213    920.25616    1161.4532    3463.6964   -241.19705 
 2600000    1002.1896   -32258.258    1088.0331   -31170.225    922.51114    1151.5368    3468.7827   -229.02569 
 2604000    999.61236   -32255.452    1085.2351   -31170.217    882.27525    1093.9176    3474.0232   -211.64236 
 2608000    996.91904   -32252.533    1082.3111   -31170.222    937.71619    1114.8284    3479.6052   -177.11223 
 2612000    998.86427   -32254.642    1084.4229   -31170.219    914.60556    1077.5901    3485.7739   -162.98449 
 2616000    993.02636   -32248.261     1078.085   -31170.176    1029.1162    1141.7091    3491.0254   -112.59284 
 2620000     1003.572   -32259.742    1089.5339   -31170.208     1010.572    1189.3579    3495.8504   -178.78595 
 2624000    1003.1873   -32259.338    1089.1163   -31170.222    929.82135    1174.0489    3501.4969   -244.22755 
 2628000    1010.5082   -32267.274    1097.0642    -31170.21    1061.6019     1111.623    3506.8744   -50.021039 
 2632000     1001.196   -32257.161    1086.9544   -31170.206    914.15314    1146.8507    3512.4605    -232.6976 
 2636000    1012.3253   -32269.248     1099.037   -31170.211    989.45594    1020.3133    3517.5604   -30.857354 
 2640000    1007.1676   -32263.673    1093.4375   -31170.236    977.62342     1072.156    3522.4238   -94.532557 
 2644000    999.24274   -32255.057    1084.8338   -31170.223    965.15896    1093.5799    3527.5295   -128.42095 
 2648000    1007.2234   -32263.714    1093.4981   -31170.216    930.03782    1108.4486    3532.5247    -178.4108 
 2652000     1004.521    -32260.78    1090.5642   -31170.216    843.33692    1165.7233    3537.2778    -322.3864 
 2656000    1009.3555   -32266.046    1095.8128   -31170.233    890.30459    1119.5377    3542.4379   -229.23313 
 2660000    1013.7832   -32270.816    1100.6198   -31170.197    838.67013     1163.973    3547.5413    -325.3029 
 2664000    1008.6254   -32265.224    1095.0202   -31170.204    1000.9599    1081.5473    3552.8253    -80.58741 
 2668000    1000.7947   -32256.731    1086.5187   -31170.212    1027.5808    1166.6179    3558.1794   -139.03705 
 2672000    999.55483   -32255.382    1085.1727   -31170.209    921.12313    1137.9929    3563.4434   -216.86976 
 2676000    1001.5547   -32257.538    1087.3438   -31170.194    883.21271    1125.5168    3568.5712   -242.30405 
 2680000    989.23674   -32244.175    1073.9708   -31170.204    886.79464    1049.5189    3573.5704   -162.72426 
 2684000    999.82047   -32255.658    1085.4611   -31170.197    835.04237    1159.4674    3579.0992     -324.425 
 2688000    996.04872   -32251.586    1081.3662    -31170.22    941.90508    1095.6828    3583.9727   -153.77771 
 2692000    1004.6593   -32260.907    1090.7144   -31170.192    964.11971    1087.0408    3589.3352   -122.92108 
 2696000    1007.9379   -32264.449    1094.2737   -31170.176    939.59783     1149.287    3594.7619   -209.68918 
 2700000    997.58283   -32253.226    1083.0317   -31170.194    932.26007    1185.1133    3600.0962   -252.85324 
 2704000      999.407   -32255.191    1085.0122   -31170.178    893.69153    1108.1077    3605.0541   -214.41618 
 2708000    995.90729   -32251.388    1081.2127   -31170.175    924.01612    1113.8388    3609.4694   -189.82269 
 2712000    990.52703   -32245.579    1075.3716   -31170.207    860.60444    1044.9283    3614.9731   -184.32385 
 2716000    1013.9486   -32270.984    1100.7994   -31170.185    898.06021    1013.4201    3620.2974   -115.35986 
 2720000    987.52938   -32242.326    1072.1172   -31170.209    897.39188    1029.5419    3625.2793   -132.14999 
 2724000    999.32367   -32255.121    1084.9217   -31170.199    893.86989    1093.9583    3630.5955   -200.08843 
 2728000    1007.1025   -32263.574    1093.3668   -31170.207    990.21142    1065.5948     3635.464   -75.383382 
 2732000    1008.8518   -32265.474    1095.2659   -31170.208    937.82002    1070.4781    3641.3662   -132.65811 
 2736000    998.50805   -32254.274    1084.0362   -31170.238    866.86996    1162.5374    3646.8723   -295.66742 
 2740000    1008.8163   -32265.437    1095.2275   -31170.209    840.70391    1139.7933    3652.6563   -299.08939 
 2744000    1008.9762   -32265.623     1095.401   -31170.221    1023.6881     1101.941    3658.6401   -78.252994 
 2748000      988.758    -32243.65     1073.451   -31170.199    927.46658    1138.4443     3664.343   -210.97773 
 2752000    999.35564   -32255.161    1084.9564   -31170.204    856.18891    1085.5658    3669.4941   -229.37684 
 2756000    999.22755   -32254.983    1084.8173   -31170.166    857.51974    1081.1966    3674.9307   -223.67685 
 2760000    1006.7753   -32263.214    1093.0116   -31170.203    913.17055    1094.0105    3680.3147    -180.8399 
 2764000    1002.9639   -32259.037    1088.8737   -31170.164    893.08607     1076.561    3685.7625   -183.47497 
 2768000    1000.4841   -32256.403    1086.1815   -31170.221    916.62974    1063.7577    3691.3201   -147.12797 
 2772000    1001.0845   -32257.015    1086.8333   -31170.181    866.75942    1112.4189    3696.4738   -245.65953 
 2776000     988.9495   -32243.876    1073.6589   -31170.218    957.57737    1073.3908     3701.401   -115.81341 
 2780000    1000.5068   -32256.389    1086.2062   -31170.183    967.30222    1091.2356    3706.4486   -123.93335 
 2784000    1000.1627   -32256.017    1085.8326   -31170.184    1009.5761    1074.3097    3711.2492   -64.733576 
 2788000    984.94957   -32239.485    1069.3164   -31170.168    850.31898    1063.8144     3716.877   -213.49543 
 2792000    999.53689   -32255.322    1085.1532   -31170.169     965.7814    1080.8304    3722.1919   -115.04897 
 2796000    999.39719   -32255.188    1085.0015   -31170.186    956.20138    1116.9185     3727.421   -160.71708 
 2800000     995.4025   -32250.852    1080.6647   -31170.187    954.57206    1088.5356    3732.7942   -133.96353 
 2804000    1005.0014   -32261.258    1091.0857   -31170.172    974.32905     1182.765    3738.2672   -208.43594 
 2808000     979.8482   -32233.962     1063.778   -31170.184    889.96328    1153.4248     3743.817   -263.46153 
 2812000    998.85761   -32254.608    1084.4157   -31170.192    941.13941     1086.651    3748.2974   -145.51163 
 2816000    989.41302    -32244.33    1074.1621   -31170.168     906.9612    1047.5306    3753.9198   -140.56943 
 2820000    1000.4328   -32256.302    1086.1259   -31170.176    1011.1368    1185.7368    3759.4732       -174.6 
 2824000    997.59835   -32253.231    1083.0486   -31170.182    943.38615    1058.2004    3765.1587   -114.81423 
 2828000    1000.5926   -32256.482    1086.2993   -31170.183    898.18011    1037.1843    3770.8223   -139.00421 
 2832000     1000.692   -32256.572    1086.4072   -31170.164    909.85719    1113.8043    3775.7511   -203.94709 
 2836000    1005.4019   -32261.684    1091.5206   -31170.164    892.21379    1132.9924    3781.1134   -240.77859 
 2840000    999.05976   -32254.787    1084.6352   -31170.152    919.17865    1146.0583    3786.4074   -226.87968 
 2844000    1004.1911   -32260.375     1090.206   -31170.169    917.28396    1087.3605    3791.6557   -170.07655 
 2848000    1007.3628   -32263.799    1093.6494   -31170.149    903.96714     1152.184    3796.6482   -248.21682 
 2852000    1000.5068   -32256.393    1086.2062   -31170.187    932.80825    1136.3779    3802.2697   -203.56962 
 2856000    1007.0686   -32263.494      1093.33   -31170.164    997.82768     1149.555    3807.7499   -151.72732 
 2860000    992.89959   -32248.137    1077.9474    -31170.19      868.284    1112.0714    3813.4934   -243.78742 
 2864000    1001.0267   -32256.931    1086.7706   -31170.161    814.90672    1089.2616    3818.4233   -274.35488 
 2868000     998.9482   -32254.715    1084.5141     -31170.2    926.67627    1146.5027     3823.313   -219.82646 
 2872000    990.56152   -32245.588     1075.409   -31170.179    797.31562    1109.3889    3828.3112   -312.07325 
 2876000     997.1664   -32252.776    1082.5796   -31170.196     861.8753    1021.2095    3833.0173   -159.33419 
 2880000    1003.0422   -32259.141    1088.9588   -31170.182    928.70425    1139.1387    3838.2039    -210.4345 
 2884000    1001.0966   -32257.059    1086.8465   -31170.213    893.18208    1084.3629    3843.4395   -191.18086 
 2888000    994.60311   -32249.996    1079.7968   -31170.199    998.08303    1084.6618    3848.9693   -86.578792 
 2892000    1004.1372   -32260.349    1090.1475   -31170.202    890.26056    1097.2379    3854.6642    -206.9773 
 2896000    1006.4113   -32262.796    1092.6164    -31170.18    966.48834    1069.1144    3859.7214   -102.62601 
 2900000    994.26074    -32249.61    1079.4251   -31170.185    895.32926    1120.7532    3865.8092   -225.42395 
 2904000    1003.7201   -32259.881    1089.6947   -31170.186    904.05371    1119.1783    3870.8358   -215.12461 
 2908000    1000.7885     -32256.7     1086.512   -31170.188    971.67642    1110.8421    3875.9097   -139.16572 
 2912000    998.55644   -32254.293    1084.0887   -31170.204    870.52989    1156.5561    3881.2552   -286.02619 
 2916000    1003.0018   -32259.089    1088.9148   -31170.175    863.96625    1123.5434    3887.0102   -259.57713 
 2920000    994.78866    -32250.18    1079.9982   -31170.182    874.75332    1056.4706    3891.9934   -181.71729 
 2924000    1002.3618    -32258.41      1088.22    -31170.19    956.18165    1129.9604    3897.9177   -173.77874 
 2928000    1008.0121   -32264.521    1094.3543   -31170.167      971.316    1180.1696     3903.942   -208.85364 
 2932000    991.69501   -32246.838    1076.6396   -31170.199    845.80082    1121.9242    3909.3857   -276.12335 
 2936000    995.51135   -32250.974    1080.7828   -31170.191    923.82954    1129.8686    3915.0547   -206.03904 
 2940000     996.7172   -32252.271     1082.092   -31170.179    916.80117    1043.1027    3920.4409   -126.30154 
 2944000    994.08912   -32249.422    1079.2388   -31170.183    927.91284    1168.6874    3925.7257   -240.77452 
 2948000    993.27689   -32248.567     1078.357    -31170.21    984.03741    1068.1067    3930.8629   -84.069323 
 2952000    1006.5901    -32263.01    1092.8105   -31170.199    893.93218    1107.3438    3936.5882   -213.41165 
 2956000    994.46344   -32249.813    1079.6452   -31170.168    888.87812    1098.4955    3941.8017   -209.61735 
 2960000    998.83382   -32254.561    1084.3899   -31170.171    894.85398    1162.7412    3946.9935    -267.8872 
 2964000    1002.9276   -32258.994    1088.8343    -31170.16    920.23705    1201.7742    3952.6529   -281.53711 
 2968000    1002.2756   -32258.289    1088.1265   -31170.163    812.39865    1111.3164    3958.5569   -298.91773 
 2972000    1007.9373    -32264.48    1094.2731   -31170.207    832.95582    1171.0191    3964.5078    -338.0633 
 2976000    1002.7572   -32258.836    1088.6493   -31170.187    856.88977    1109.3311    3969.5551   -252.44137 
 2980000    996.24794   -32251.793    1081.5825    -31170.21    1007.6735    1129.2243    3974.5022   -121.55077 
 2984000    1000.6968   -32256.606    1086.4124   -31170.193    916.71763    1213.5632    3979.9187   -296.84559 
 2988000    990.72342   -32245.756    1075.5848   -31170.171    894.84048     1109.281    3985.2408    -214.4405 
 2992000    1007.3943   -32263.878    1093.6836   -31170.195    1013.7084    1073.1882    3990.8983   -59.479762 
 2996000    1001.0307   -32256.988    1086.7749   -31170.213    924.72547    1119.7991    3996.2545    -195.0736 
 3000000    1001.4809   -32257.437    1087.2637   -31170.173     876.0089    1221.0341    4002.0256   -345.02524 
 3004000    990.71992   -32245.773     1075.581   -31170.192    992.23658     1055.692    4007.2302   -63.455427 
 3008000    1011.0035    -32267.79    1097.6019   -31170.188    921.25928    1116.1635    4012.9478    -194.9042 
 3012000    1008.2259   -32264.786    1094.5864     -31170.2    1053.7101    1089.9972    4018.5553   -36.287075 
 3016000    1004.1852   -32260.357    1090.1997   -31170.158    985.67857    1234.3991    4023.9207   -248.72057 
 3020000    996.34751     -32251.9    1081.6906   -31170.209     892.8051    1116.3693    4029.4372   -223.56423 
 3024000    1003.2434    -32259.39    1089.1772   -31170.213    866.59193    1094.1586    4034.6729    -227.5667 
 3028000    1003.2611   -32259.426    1089.1964    -31170.23    870.69217    1169.5534    4039.5413   -298.86126 
 3032000    994.03788   -32249.393    1079.1832   -31170.209    888.70033    1097.6405    4044.4839   -208.94019 
 3036000    999.04063   -32254.817    1084.6144   -31170.203    885.38617    1141.9981    4049.2947   -256.61195 
 3040000    997.32065   -32252.961    1082.7471   -31170.214    952.81554    1099.5729    4054.2713    -146.7574 
 3044000    993.84458   -32249.165    1078.9733   -31170.191    907.46024    1019.1093    4059.8433   -111.64904 
 3048000    995.43393   -32250.903    1080.6988   -31170.205    966.95885    1114.5785    4065.3053   -147.61967 
 3052000    1000.4982   -32256.384    1086.1968   -31170.187    1048.5474     1064.234     4070.513   -15.686636 
 3056000    988.28575   -32243.136    1072.9383   -31170.198    941.67869    1180.7145     4076.299   -239.03577 
 3060000    994.32183   -32249.659    1079.4914   -31170.167    937.82211    1164.7335    4081.8308    -226.9114 
 3064000    992.46859   -32247.648    1077.4794   -31170.169    887.50095    1177.3505    4087.3001   -289.84958 
 3068000    994.74851   -32250.151    1079.9546   -31170.196    1014.7341    1127.9376    4092.3246    -113.2035 
 3072000    1002.4456   -32258.487    1088.3111   -31170.176    928.22618    1051.3346    4097.3013   -123.10841 
 3076000    1004.1207   -32260.293    1090.1296   -31170.163    936.42739     1014.232    4102.2658   -77.804649 
 3080000    996.04986   -32251.559    1081.3675   -31170.191    872.46172    1084.1704    4107.6867   -211.70872 
 3084000    1001.0323   -32256.985    1086.7766   -31170.209     962.2126    1098.9745    4112.2812   -136.76193 
 3088000    1011.5582   -32268.417    1098.2042   -31170.213    952.94146    1073.6376    4117.5659    -120.6961 
 3092000    991.53277   -32246.693    1076.4635   -31170.229    980.55338    1062.7701    4122.8828   -82.216703 
 3096000    995.64822    -32251.14    1080.9314   -31170.209    959.53239    1050.0195    4128.0657   -90.487076 
 3100000    996.03825    -32251.57    1081.3549   -31170.216    846.47134    1069.0689    4133.6147   -222.59761 
 3104000    999.69925   -32255.531    1085.3294   -31170.201    908.95801    1096.1352    4138.9129   -187.17719 
 3108000    988.40371   -32243.311    1073.0664   -31170.245    870.03711    1096.0725    4144.3717    -226.0354 
 3112000    996.04781   -32251.591    1081.3652   -31170.226    927.85663     1158.813    4150.6231   -230.95639 
 3116000    994.07507   -32249.458    1079.2235   -31170.234     938.7593    1110.9237    4155.4807   -172.16443 
 3120000    1008.6619     -32265.3    1095.0598    -31170.24     834.0131    1092.5264    4161.4432   -258.51332 
 3124000    999.21626   -32255.027    1084.8051   -31170.222    914.92822    1063.5698    4166.4803   -148.64158 
 3128000    997.37894   -32253.003    1082.8104   -31170.192    889.57717     1145.966    4172.3056   -256.38883 
 3132000    995.65302   -32251.157    1080.9366    -31170.22    895.13967    1049.1828    4178.3715   -154.04312 
 3136000    1002.0231   -32258.086    1087.8524   -31170.234    981.47828    1025.3499     4183.682    -43.87159 
 3140000    1007.2664   -32263.768    1093.5447   -31170.224    898.52848    1170.3983    4188.6443   -271.86986 
 3144000    992.31732    -32247.53    1077.3152   -31170.215     898.6246    1055.4715    4193.7566   -156.84688 
 3148000    1001.7375   -32257.765    1087.5422   -31170.223    921.50211    1115.0812    4198.8103   -193.57906 
 3152000    1001.9785   -32258.022    1087.8039   -31170.218    928.82584     1092.506    4204.1257   -163.68021 
 3156000    1012.2228   -32269.138    1098.9257   -31170.213    906.71863    1066.2859    4209.2496   -159.56732 
 3160000    991.95469    -32247.15    1076.9215   -31170.228    867.45719    1055.7336    4214.7222   -188.27639 
 3164000     991.3313     -32246.5    1076.2447   -31170.255    845.27428    1062.6078    4220.2514   -217.33354 
 3168000     1013.422   -32270.463    1100.2277   -31170.236    1025.8453    1110.3579    4225.9237   -84.512637 
 3172000    990.20197   -32245.239    1075.0187    -31170.22    902.46909    1098.0392    4231.4633   -195.57008 
 3176000     989.5004   -32244.514     1074.257   -31170.257    925.81787    1064.7681    4236.9376   -138.95023 
 3180000    1020.3705   -32277.966    1107.7713   -31170.194    1010.3035    1115.6616    4241.9359   -105.35816 
 3184000    993.90947   -32249.282    1079.0437   -31170.238     865.8643    1180.2036    4247.6591    -314.3393 
 3188000    990.90153   -32246.027    1075.7782   -31170.248    986.99481    1083.8077    4252.7356   -96.812941 
 3192000    996.41633   -32252.001    1081.7653   -31170.235     932.1778    1150.8393    4258.0037   -218.66148 
 3196000    1007.8953   -32264.427    1094.2275     -31170.2     997.8183    1116.9653    4263.5216   -119.14703 
 3200000    995.25346   -32250.718    1080.5028   -31170.215    1067.8586    1215.0288    4268.9673    -147.1702 
 3204000     1007.207   -32263.702    1093.4803   -31170.221    990.88796    1177.7274    4273.8996   -186.83949 
 3208000    994.31161   -32249.671    1079.4803    -31170.19    839.13068    1143.7001    4279.1638   -304.56939 
 3212000    994.49495   -32249.882    1079.6794   -31170.202    848.15145    1106.5373    4284.1736   -258.38589 
 3216000    996.15629   -32251.686     1081.483   -31170.203    842.18808    1164.6867    4289.7801   -322.49859 
 3220000      1003.07   -32259.164     1088.989   -31170.175    905.21327    1061.3837    4294.7958   -156.17046 
 3224000    993.62347   -32248.963    1078.7332    -31170.23    916.46886    1063.0277    4299.7569    -146.5588 
 3228000    1005.3611   -32261.674    1091.4762   -31170.198    916.51645    1100.0945    4304.8709   -183.57808 
 3232000    1003.6863   -32259.866     1089.658   -31170.208      827.557    1136.6709    4309.9848   -309.11392 
 3236000    993.15779   -32248.462    1078.2277   -31170.234    844.23234    1115.9882    4315.2313   -271.75582 
 3240000     1000.941   -32256.924    1086.6776   -31170.247    895.49771    1082.4187    4320.3924   -186.92101 
 3244000    1005.2008   -32261.524    1091.3022   -31170.222    937.10174    1084.6829    4325.5776    -147.5812 
 3248000    1001.3621   -32257.366    1087.1347   -31170.232    908.96627    1079.1263    4330.7432   -170.16005 
 3252000    1010.3674   -32267.144    1096.9114   -31170.233    963.58032    1138.4114    4335.3132   -174.83112 
 3256000    1004.4655   -32260.743    1090.5039   -31170.239    968.64608    1148.6533     4341.104    -180.0072 
 3260000     989.7409   -32244.754    1074.5181   -31170.236     906.9713     1116.414    4346.5862   -209.44274 
 3264000    1000.7223   -32256.655    1086.4402   -31170.215    893.80377    1134.1086    4351.0763   -240.30486 
 3268000    995.73464   -32251.228    1081.0252   -31170.203    884.44828    1066.9383    4356.3557   -182.49005 
 3272000    1011.9462   -32268.848    1098.6254   -31170.223    955.73989    1109.6604    4361.0749   -153.92049 
 3276000    1000.4419    -32256.36    1086.1357   -31170.225    917.53136    1140.7276    4366.4293   -223.19619 
 3280000    993.39227   -32248.743    1078.4822   -31170.261    891.60765    1123.5191    4371.5756    -231.9114 
 3284000     994.0577   -32249.434    1079.2047   -31170.229     927.9677    1072.7745    4376.8215   -144.80675 
 3288000    1002.2625   -32258.361    1088.1122   -31170.249    1063.3471    1040.6914    4382.1856    22.655767 
 3292000    997.08563   -32252.716     1082.492   -31170.224    903.82912    1060.2658     4387.464   -156.43673 
 3296000    988.98857   -32243.958    1073.7013   -31170.257    937.25237    1042.0191    4392.7418   -104.76671 
 3300000    999.38724   -32255.224    1084.9907   -31170.233    907.77667    1149.3707    4397.7718   -241.59401 
 3304000    1001.9555   -32258.055     1087.779   -31170.276    986.85948    1137.7301    4403.4712   -150.87057 
 3308000    998.60185    -32254.41    1084.1381   -31170.272    766.11379    1076.1838    4408.8924   -310.07004 
 3312000    1001.9786   -32258.049    1087.8041   -31170.245     915.7202    1125.6817    4414.7109   -209.96154 
 3316000    1007.1651   -32263.683    1093.4348   -31170.248    816.11048    1206.5736    4419.9244   -390.46312 
 3320000     1000.744   -32256.722    1086.4636   -31170.259    934.35496    1087.1062     4425.125   -152.75123 
 3324000    1002.7929   -32258.928    1088.6881    -31170.24    929.76341    1133.1134    4429.6358   -203.34995 
 3328000    1005.9001   -32262.321    1092.0615    -31170.26    1061.8466    1072.4277    4434.2326   -10.581096 
 3332000    1003.3869   -32259.565     1089.333   -31170.232    907.40109    1148.9557    4440.0904   -241.55461 
 3336000    1002.8418   -32258.978    1088.7412   -31170.237    908.68858     1197.898    4445.5588   -289.20939 
 3340000    1010.4466   -32267.244    1096.9973   -31170.246    963.93771    1216.9764    4451.0578   -253.03868 
 3344000    1005.5815   -32261.986    1091.7155    -31170.27    1042.6255    1082.5394    4456.6256   -39.913892 
 3348000     1005.051    -32261.43    1091.1396    -31170.29    915.12742    1104.8906     4461.441   -189.76314 
 3352000    991.48378   -32246.676    1076.4103   -31170.266    921.93663    1040.5298    4466.6953   -118.59316 
 3356000    987.06496   -32241.885     1071.613   -31170.272    1005.9033    1080.2383    4471.4996   -74.335049 
 3360000    998.06714   -32253.829    1083.5575   -31170.272     816.0269    1045.4019    4476.7245   -229.37503 
 3364000    1000.2561   -32256.213     1085.934   -31170.279    788.30118    1124.1527    4481.6949   -335.85155 
 3368000    1010.0655   -32266.828    1096.5837   -31170.245    1068.3243    1088.4189    4487.5955   -20.094601 
 3372000    1007.1958   -32263.726    1093.4681   -31170.258    836.70259    1133.0543    4493.2669    -296.3517 
 3376000    992.51911   -32247.773    1077.5343   -31170.239    992.30978    1050.4755    4499.3002    -58.16574 
 3380000    1000.8844   -32256.867    1086.6162   -31170.251     980.4704    1082.4022    4504.6865   -101.93177 
 3384000    990.84063   -32245.998     1075.712   -31170.286    910.34515    1039.0503    4509.7154   -128.70512 
 3388000    1000.2675   -32256.217    1085.9464    -31170.27    861.58266     1044.902    4514.4961   -183.31937 
 3392000    995.89085   -32251.419    1081.1948   -31170.224    940.71046     1133.084    4520.1435   -192.37357 
 3396000    997.02341   -32252.655    1082.4244    -31170.23    889.12901    1099.3815    4525.2694   -210.25251 
 3400000    1003.4032   -32259.587    1089.3506   -31170.236    989.82158    1071.4617    4530.5609   -81.640104 
 3404000    985.65224     -32240.3    1070.0792   -31170.221    839.50636    1080.4199    4535.4047   -240.91358 
 3408000    998.62722   -32254.425    1084.1656    -31170.26    956.12385     1063.356    4540.7534   -107.23214 
 3412000    1005.3126   -32261.654    1091.4236   -31170.231    918.87216    1136.0455    4546.0861   -217.17336 
 3416000      996.692   -32252.317    1082.0646   -31170.253    938.00854    1072.3275    4551.7651   -134.31896 
 3420000    1003.4352   -32259.612    1089.3854   -31170.227    924.98064    1099.0108    4556.8473   -174.03012 
 3424000     998.6206   -32254.356    1084.1584   -31170.197    964.92413    1124.3926    4561.8561   -159.46851 
 3428000    1006.9936    -32263.51    1093.2486   -31170.262    975.51436    1184.8828    4567.3695   -209.36839 
 3432000    1007.5355   -32264.043    1093.8369   -31170.206    1017.6956     1114.503     4573.032   -96.807415 
 3436000    1005.0705   -32261.393    1091.1608   -31170.232    914.94845    1098.4892    4578.2351   -183.54072 
 3440000    1008.3702   -32264.954    1094.7431   -31170.211    995.36031    1184.1549    4583.7687   -188.79457 
 3444000    1000.9457   -32256.881    1086.6827   -31170.198    985.90988    1090.6779    4589.0384   -104.76804 
 3448000    997.90827    -32253.62    1083.3851   -31170.235    881.99934    1108.9592     4594.234   -226.95989 
 3452000    1014.7729    -32271.89    1101.6942   -31170.195    986.90631    1114.9213    4599.5958   -128.01502 
 3456000    1018.2413    -32275.67    1105.4597   -31170.211    915.98648    1184.9244    4604.7583   -268.93788 
 3460000    1007.5734   -32264.126    1093.8781   -31170.247     996.2525    1115.6267    4610.8876   -119.37417 
 3464000     999.8745   -32255.759    1085.5197   -31170.239    908.70506    1112.9401     4616.678   -204.23507 
 3468000    1002.5302    -32258.63    1088.4028   -31170.228    982.56606    1095.4409    4622.0366   -112.87483 
 3472000    1004.1845    -32260.44    1090.1989   -31170.241    930.52439    1087.8386    4628.1576   -157.31426 
 3476000    1000.9067   -32256.882    1086.6403   -31170.242    1021.5229    1185.5891    4633.3063   -164.06622 
 3480000    1011.7918   -32268.676    1098.4578   -31170.218    943.99844    1151.2701    4638.6817    -207.2717 
 3484000    996.18124   -32251.754    1081.5101   -31170.244    926.73993    1096.3942    4644.0324   -169.65429 
 3488000      1002.83   -32258.936    1088.7283   -31170.207    983.45643    1075.5352    4649.2232   -92.078819 
 3492000    1003.8577   -32260.073    1089.8441   -31170.228    977.17263    1173.8319     4654.536   -196.65929 
 3496000    1006.6727   -32263.096    1092.9002   -31170.195    835.39046    1132.9622    4660.0314   -297.57179 
 3500000    991.69294   -32246.845    1076.6374   -31170.208    888.67403    1075.0643    4665.5202   -186.39028 
 3504000    1002.5119   -32258.604     1088.383   -31170.221    984.24589    1184.1244    4670.3266   -199.87853 
 3508000    1006.0106    -32262.41    1092.1814   -31170.228    934.22719    1168.3473    4675.3749   -234.12015 
 3512000    1002.4503   -32258.549    1088.3161   -31170.233    826.62738    1074.5579    4680.8461   -247.93056 
 3516000    1006.6996   -32263.153    1092.9294   -31170.224    840.33824    1097.9702    4686.0818   -257.63192 
 3520000    1013.3879   -32270.444    1100.1906   -31170.254    998.48057    1149.6695    4691.5665   -151.18888 
 3524000    991.63995   -32246.826    1076.5798   -31170.246     964.8454    1131.5792    4696.8775    -166.7338 
 3528000    1003.3858   -32259.558    1089.3318   -31170.227    874.95834    1127.4648    4701.8343   -252.50645 
 3532000    1004.3236   -32260.586    1090.3499   -31170.236     937.5064    1113.5974    4707.1368   -176.09098 
 3536000    1012.3368   -32269.306    1099.0494   -31170.256    918.29034    1095.4043    4713.0521   -177.11393 
 3540000    994.39146   -32249.815     1079.567   -31170.248      812.241    1155.7148    4718.5057   -343.47379 
 3544000    1006.1128   -32262.554    1092.2923   -31170.261    913.77147    1154.6752    4723.7182   -240.90372 
 3548000    994.26955   -32249.654    1079.4347   -31170.219    886.75756    1082.3737    4728.5826   -195.61618 
 3552000    998.32138   -32254.117    1083.8336   -31170.283    875.14835     996.5796    4734.2321   -121.43125 
 3556000    999.06516   -32254.887     1084.641   -31170.246     1028.231    1165.6588      4739.75   -137.42781 
 3560000    994.02713   -32249.422    1079.1715    -31170.25    978.75292    1102.1061     4744.849    -123.3532 
 3564000    1004.2086   -32260.476     1090.225   -31170.251    860.12501    1058.3753    4750.6787   -198.25029 
 3568000    1008.5112   -32265.163    1094.8961   -31170.266    961.60512    1110.7328    4756.2635   -149.12764 
 3572000    1008.1008   -32264.705    1094.4507   -31170.254    1063.7385    1211.3184     4762.268   -147.57993 
 3576000    1005.1253   -32261.498    1091.2203   -31170.277    931.50823    1091.6088    4767.7327   -160.10053 
 3580000    998.59467   -32254.371    1084.1302    -31170.24    927.89122    1148.5362    4773.4357   -220.64495 
 3584000    1003.4081   -32259.622    1089.3559   -31170.266    935.94068    1120.7808    4778.9145   -184.84012 
 3588000    1001.7335   -32257.768    1087.5379    -31170.23    929.04833    1060.2135    4784.3065   -131.16513 
 3592000    1002.7038   -32258.855    1088.5913   -31170.264    950.10456    1215.2005    4789.8905   -265.09598 
 3596000    999.59469   -32255.452    1085.2159   -31170.236    929.28346    1024.0125     4795.097   -94.729003 
 3600000    1001.6895   -32257.773    1087.4902   -31170.283    950.33986    1053.3315    4800.2279   -102.99163 
 3604000    1001.3424   -32257.338    1087.1133   -31170.225    900.84823    1173.4053    4805.2841    -272.5571 
 3608000    1001.0851   -32257.101     1086.834   -31170.267    952.99576    1199.8131    4809.9638   -246.81736 
 3612000     1002.026   -32258.107    1087.8554   -31170.251    947.53178    1170.5442    4815.3166   -223.01245 
 3616000    996.89962   -32252.578      1082.29   -31170.288    844.87234    1143.5877    4820.5017   -298.71538 
 3620000    1000.5769    -32256.55    1086.2823   -31170.268    1016.0335    1220.1269    4825.7905   -204.09338 
 3624000    1001.2904   -32257.334    1087.0569   -31170.277    940.69455    1172.8301    4831.0353   -232.13556 
 3628000    994.53298   -32250.014    1079.7207   -31170.294    872.97738    1071.8687    4836.3735   -198.89136 
 3632000    1011.8938   -32268.833    1098.5685   -31170.264    943.36152    1216.6936    4842.0239   -273.33211 
 3636000    1006.4769   -32262.967    1092.6877    -31170.28    950.57654    1110.7733    4847.3116   -160.19672 
 3640000    1004.9689   -32261.284    1091.0505   -31170.233    993.00209    1099.6019    4853.0429   -106.59977 
 3644000    991.79669   -32247.009      1076.75   -31170.259    946.08726    1097.4119    4858.3839   -151.32469 
 3648000    992.40459   -32247.688      1077.41   -31170.279    876.14264    1195.4124    4863.3839    -319.2698 
 3652000    993.03062   -32248.376    1078.0896   -31170.287    864.77761     1129.608    4868.8814   -264.83037 
 3656000    988.55652   -32243.494    1073.2323   -31170.262    770.27436    1108.0804    4873.8667     -337.806 
 3660000    1004.3085   -32260.621    1090.3335   -31170.287    879.38536    1163.0741    4880.0917   -283.68876 
 3664000    1014.8573   -32272.048    1101.7858   -31170.262    932.76929    1078.1779    4885.5381   -145.40856 
 3668000    1001.5336   -32257.602     1087.321   -31170.281    934.10724    1085.8528     4891.206   -151.74559 
 3672000    996.06951   -32251.676    1081.3888   -31170.287    870.46832     998.2011    4896.3873   -127.73278 
 3676000    992.55809   -32247.897    1077.5766    -31170.32    911.10181    1125.3018    4901.1258   -214.19998 
 3680000    1006.8197   -32263.361    1093.0598   -31170.302     868.2371     1109.558    4905.7163   -241.32089 
 3684000    1005.0442   -32261.421    1091.1322   -31170.289    839.17483    1131.0556    4911.5281    -291.8808 
 3688000     997.3851   -32253.129    1082.8171   -31170.312    1043.5841    1106.7532    4916.9307   -63.169096 
 3692000    1000.1125   -32256.088    1085.7781    -31170.31    832.35493    1148.1849    4922.5939      -315.83 
 3696000    988.16594   -32243.141    1072.8082   -31170.333    884.28372    1010.1236    4927.7754   -125.83989 
 3700000    1006.6351   -32263.184    1092.8594   -31170.325    962.37558    1179.0559    4932.9172   -216.68027 
 3704000    1001.7585   -32257.883    1087.5651   -31170.318    869.40602    1058.1522    4937.9858   -188.74619 
 3708000    1001.1412   -32257.194    1086.8949   -31170.299      929.679    1189.2927    4943.2458   -259.61375 
 3712000    996.59485   -32252.329    1081.9591    -31170.37    940.33857     1076.109    4949.0706   -135.77044 
 3716000     1004.839   -32261.255    1090.9095   -31170.345    939.29318    1022.0951    4954.5003   -82.801895 
 3720000    1003.3923   -32259.664    1089.3388   -31170.325    1006.6164    1096.3257     4959.985   -89.709315 
 3724000    1006.1464   -32262.643    1092.3289   -31170.314    944.93871    1168.0486    4965.7167   -223.10988 
 3728000     995.8383   -32251.472    1081.1378   -31170.334    914.44992     1148.209    4970.6146   -233.75903 
 3732000    1003.1456   -32259.381     1089.071    -31170.31    994.26545    1075.7169    4976.5057   -81.451459 
 3736000    1005.2235   -32261.647    1091.3269    -31170.32    789.96704     1140.709    4981.8045   -350.74199 
 3740000    996.30525   -32251.949    1081.6447   -31170.305    833.16874    1042.9758    4986.6666   -209.80704 
 3744000    998.09535   -32253.896    1083.5882   -31170.308    780.44386    1082.0528    4992.7189   -301.60894 
 3748000    1005.9349   -32262.406    1092.0992   -31170.307    939.63437    1038.6921    4997.6057   -99.057761 
 3752000     1001.302   -32257.352    1087.0695   -31170.283    855.77635    1098.6481    5002.6955   -242.87175 
 3756000    1006.7886    -32263.37    1093.0261   -31170.344    912.09446    1182.1659    5008.3739   -270.07145 
 3760000     1007.755   -32264.431    1094.0753   -31170.355    915.24507    1065.7399    5014.3201   -150.49479 
 3764000    987.31481   -32242.244    1071.8842    -31170.36    918.12955    1063.6834    5019.5094   -145.55387 
 3768000    1006.3435   -32262.854    1092.5428   -31170.311    833.22457    1071.5435    5025.2803    -238.3189 
 3772000    994.97772   -32250.534    1080.2035   -31170.331    852.40541    1181.1146    5030.6247   -328.70922 
 3776000    993.71251   -32249.156    1078.8299   -31170.326    956.10384    1126.8147    5035.5746    -170.7109 
 3780000    997.99259   -32253.803    1083.4766   -31170.326    1017.3248    1223.2528    5040.8266   -205.92803 
 3784000     1002.672   -32258.904    1088.5568   -31170.347    960.12101    1102.9533    5045.9275   -142.83226 
 3788000    1004.7313   -32261.101    1090.7925   -31170.308    954.75083    1051.4752     5051.283   -96.724397 
 3792000    999.20114   -32255.126    1084.7887   -31170.338    844.98992      1142.12    5057.2035   -297.13011 
 3796000    999.18162   -32255.134    1084.7675   -31170.367    1027.8906     1123.662    5062.1369    -95.77143 
 3800000    1009.1029    -32265.87    1095.5386   -31170.332    895.75678    1067.5888    5067.6926   -171.83207 
 3804000    999.32942   -32255.286    1084.9279   -31170.358    986.15848    1165.3286    5073.0599   -179.17011 
 3808000    1004.7924   -32261.221    1090.8589   -31170.362    891.64492    1126.4363    5078.7831   -234.79135 
 3812000    990.37875   -32245.542    1075.2106   -31170.332      801.106    1150.8674    5083.3551   -349.76137 
 3816000    988.85632   -32243.876    1073.5578   -31170.318    953.84519    1092.4134    5088.4887   -138.56817 
 3820000    999.97177   -32255.993    1085.6253   -31170.368    979.92392    1115.3732     5093.956   -135.44924 
 3824000    999.01808   -32254.918    1084.5899   -31170.328    937.70808    1070.5036    5099.0182   -132.79548 
 3828000    1002.5158   -32258.722    1088.3873   -31170.335    939.81891    1178.0553    5104.2288    -238.2364 
 3832000    994.66556   -32250.229    1079.8646   -31170.365    860.72206    1080.9619    5109.1238   -220.23986 
 3836000    1006.1659   -32262.687      1092.35   -31170.337    842.63003    1117.8814    5114.1766   -275.25141 
 3840000     1018.617   -32276.188    1105.8676    -31170.32    875.84697    1011.4035    5119.8989   -135.55654 
 3844000    998.18038   -32254.013    1083.6805   -31170.332    888.98032    1089.7754    5124.8268   -200.79505 
 3848000    1002.4922   -32258.658    1088.3617   -31170.297    970.42664     1083.844    5130.5114   -113.41732 
 3852000    998.95536   -32254.859    1084.5218   -31170.337    891.21005    1095.9468    5135.4078   -204.73678 
 3856000    1006.9909   -32263.583    1093.2457   -31170.338    912.91882    1172.4173     5141.025   -259.49852 
 3860000    994.82464   -32250.352    1080.0373   -31170.314    930.70554    1109.1619    5145.6109   -178.45639 
 3864000    1010.4717   -32267.337    1097.0246   -31170.312    988.11154    1130.9683    5150.3411   -142.85677 
 3868000    999.08261   -32254.989      1084.66   -31170.329    985.33953    1094.8617    5155.7206    -109.5222 
 3872000    1004.9565   -32261.372     1091.037   -31170.335    970.27721    1141.1466    5161.0844   -170.86934 
 3876000    998.34165   -32254.204    1083.8556   -31170.348    989.23294    1102.9897    5166.6734   -113.75675 
 3880000    1001.2592   -32257.364     1087.023   -31170.341    968.97249    1071.0354    5171.5599   -102.06294 
 3884000    999.57969   -32255.553    1085.1996   -31170.353     915.5083    1080.8685    5177.0621   -165.36017 
 3888000     995.6053   -32251.251    1080.8848   -31170.366     947.9641    1101.9633    5182.2668   -153.99915 
 3892000    995.94708   -32251.602    1081.2559   -31170.346    1001.6154    1053.9175    5187.9078   -52.302087 
 3896000    1005.1569   -32261.589    1091.2545   -31170.334     993.7235    1102.0569    5194.1079   -108.33335 
 3900000    987.39325   -32242.326    1071.9694   -31170.357    906.54879    1043.4759    5199.5829   -136.92712 
 3904000    999.25338   -32255.191    1084.8454   -31170.345      973.964    1006.9658    5205.2056   -33.001848 
 3908000    1000.5375   -32256.585    1086.2395   -31170.346    968.88614     1120.805    5210.8368   -151.91885 
 3912000    998.34409   -32254.238    1083.8582    -31170.38    900.04603    1096.7687    5216.1327   -196.72266 
 3916000     998.8246   -32254.755    1084.3799   -31170.375    792.10971    1078.0662     5221.205   -285.95646 
 3920000    1007.0557   -32263.688     1093.316   -31170.372    842.38385     1195.436    5226.9959    -353.0522 
 3924000    1004.2727   -32260.674    1090.2947    -31170.38    895.60116    1064.8504    5232.4272    -169.2492 
 3928000    1004.9034   -32261.391    1090.9793   -31170.412    945.55603    1059.7017    5237.6224   -114.14564 
 3932000    1003.9761   -32260.364    1089.9726   -31170.391    959.18477    1022.3116    5242.8941   -63.126846 
 3936000    1001.2691   -32257.398    1087.0338   -31170.365    923.58353    1117.4509    5248.3183   -193.86739 
 3940000    1006.1397   -32262.729    1092.3215   -31170.407    996.76011    1075.7818    5253.6603   -79.021647 
 3944000    1002.6246   -32258.895    1088.5054    -31170.39    933.31045    1051.1124    5258.9441     -117.802 
 3948000      1000.96   -32257.117    1086.6982   -31170.418    940.00641    1112.9919    5265.0291   -172.98553 
 3952000    992.87288   -32248.314    1077.9184   -31170.396    930.73742    1076.7266    5270.8399   -145.98917 
 3956000     997.2153   -32253.034    1082.6327   -31170.401    949.56585    1080.3084    5276.2196   -130.74256 
 3960000    992.32458   -32247.717    1077.3231   -31170.394    939.75485    1073.0092    5281.5007   -133.25436 
 3964000    1003.8238   -32260.213    1089.8073   -31170.405    954.66047    1108.1058    5286.6699   -153.44529 
 3968000    994.41153   -32249.962    1079.5888   -31170.374    792.90742    1076.2437    5291.7811   -283.33628 
 3972000    1007.6259   -32264.324     1093.935   -31170.389    900.40943    1128.7849    5297.0509   -228.37542 
 3976000    1011.8281   -32268.885    1098.4972   -31170.388    888.04231    1127.6692    5302.5409   -239.62691 
 3980000    1003.9892   -32260.394    1089.9869   -31170.407    1012.5399    1059.8066    5307.9956   -47.266672 
 3984000    1001.4907   -32257.662    1087.2743   -31170.387    894.10281    1089.0012    5314.1755    -194.8984 
 3988000    992.17829   -32247.554    1077.1643   -31170.389    964.68143    1078.6014    5319.3213   -113.91999 
 3992000     994.2714   -32249.828    1079.4367   -31170.392    919.44959      1084.76    5324.5699   -165.31045 
 3996000     1006.243   -32262.831    1092.4337   -31170.397    960.26641     1149.168    5330.2495   -188.90161 
 4000000     991.0935   -32246.422    1075.9866   -31170.436    906.34044    1053.4809     5334.967   -147.14046 
 4004000    1001.7734   -32257.978    1087.5813   -31170.397    929.30458    1089.4522    5340.7008   -160.14763 
 4008000    993.07565   -32248.545    1078.1385   -31170.406    951.36177    1103.1221    5346.1627   -151.76037 
 4012000    1007.5761   -32264.278     1093.881   -31170.397    914.39571    1185.9121    5351.3237   -271.51643 
 4016000    1000.8252   -32256.961    1086.5519   -31170.409    1001.1867    1095.2621    5356.9634   -94.075363 
 4020000    982.48852   -32237.069    1066.6445   -31170.424    1025.6009    1111.4772    5362.6886   -85.876292 
 4024000    1008.2801   -32265.026    1094.6453   -31170.381    903.28156    1145.3908    5368.4024   -242.10921 
 4028000    999.45961   -32255.431    1085.0693   -31170.362    964.10449    1096.2386    5374.3865   -132.13411 
 4032000    1006.0105   -32262.614    1092.1813   -31170.433     893.6608    1115.7495    5379.8416   -222.08875 
 4036000    991.49026   -32246.851    1076.4173   -31170.434    926.46027    1112.8339    5384.6595   -186.37362 
 4040000    1012.7456   -32269.873    1099.4933    -31170.38    964.31261     1044.778    5390.0634   -80.465337 
 4044000    1009.1701    -32265.99    1095.6115   -31170.378    1025.1871    1258.5449     5395.931   -233.35784 
 4048000    1001.0359    -32257.16    1086.7806   -31170.379    914.32733    1157.7546    5401.5286    -243.4273 
 4052000    1000.2547   -32256.309    1085.9325   -31170.376    920.44521    1173.1317    5406.6911   -252.68647 
 4056000    994.43024   -32249.983    1079.6091   -31170.374    913.79813    1092.9533    5411.6665   -179.15513 
 4060000    997.36837   -32253.201    1082.7989   -31170.402    834.80377     1143.985    5416.9127   -309.18124 
 4064000    1011.1644   -32268.179    1097.7767   -31170.402    895.47024    1115.0834    5422.4367   -219.61316 
 4068000     996.3747   -32252.109    1081.7201   -31170.388    897.74626    1057.8706    5427.4751   -160.12439 
 4072000    1004.3547   -32260.773    1090.3836    -31170.39    898.84153    1042.3788    5432.8848   -143.53726 
 4076000    1000.6389   -32256.735    1086.3495   -31170.385    946.63591    1080.9937      5437.81   -134.35775 
 4080000    993.53246   -32249.037    1078.6344   -31170.403    971.37329    1145.7702    5442.6719   -174.39692 
 4084000    992.37102   -32247.749    1077.3735   -31170.376    920.62632    1098.8659    5447.8748   -178.23955 
 4088000    996.62689   -32252.354    1081.9939    -31170.36    1002.8866    1045.2296    5452.8078   -42.342978 
 4092000    992.10446   -32247.447    1077.0841   -31170.363    966.44976    1138.1423    5458.2992   -171.69259 
 4096000     997.8207   -32253.636      1083.29   -31170.346    1004.0701    1077.3226    5463.3566   -73.252533 
 4100000    992.10973   -32247.461    1077.0898   -31170.371    858.95587    1058.9943    5469.6322    -200.0384 
 4104000    1007.2112   -32263.878    1093.4848   -31170.393    891.08179    1070.7148    5475.2768   -179.63302 
 4108000    994.23041   -32249.796    1079.3922   -31170.404    890.89463    1073.5892    5480.2919   -182.69454 
 4112000    1002.9507   -32259.269    1088.8594   -31170.409     951.4724      1122.39    5485.6449    -170.9176 
 4116000    1008.9572   -32265.768    1095.3804   -31170.388     908.2084     1014.084    5491.3873   -105.87565 
 4120000    1013.9508   -32271.185    1100.8018   -31170.383    878.68082     1122.891    5496.8822   -244.21015 
 4124000    998.57519   -32254.482    1084.1091   -31170.373    991.21021     1117.368    5501.8072   -126.15776 
 4128000    998.36163   -32254.258    1083.8773   -31170.381    926.30321     1058.172    5507.7041   -131.86884 
 4132000    1005.2131   -32261.728    1091.3156   -31170.413    1006.8095    1071.2896    5512.9098   -64.480029 
 4136000     989.9747    -32245.15    1074.7719   -31170.378    949.74166    1086.5819    5518.0153    -136.8402 
 4140000    1001.3077   -32257.489    1087.0757   -31170.414    895.09846    1070.9946    5523.5249   -175.89617 
 4144000    998.05713   -32253.905    1083.5467   -31170.358    1008.5234    1109.6654     5529.338   -101.14204 
 4148000    994.27473    -32249.82    1079.4403    -31170.38     965.6504    1225.3418    5534.7228   -259.69136 
 4152000    1000.1535   -32256.196    1085.8226   -31170.374    931.12065    1151.1217     5539.778   -220.00106 
 4156000    1003.1018   -32259.374    1089.0235    -31170.35    981.88992    1064.0937    5545.6014   -82.203763 
 4160000    1001.1893   -32257.287    1086.9471    -31170.34    1007.6641    998.72854    5551.1202    8.9355177 
 4164000    1000.3632   -32256.398    1086.0503   -31170.348    877.13044    1086.5263    5556.8859   -209.39591 
 4168000    992.76667   -32248.147     1077.803   -31170.344    993.57624    997.48503    5561.9607   -3.9087894 
 4172000    997.92744   -32253.778    1083.4059   -31170.372     1013.242    1077.1281    5567.4093   -63.886117 
 4176000    1003.2352   -32259.524    1089.1683   -31170.356     907.7995    1109.0917    5572.5354   -201.29221 
 4180000    997.35324   -32253.148    1082.7825   -31170.366    843.37895    1051.0963    5578.1493   -207.71736 
 4184000    996.47488   -32252.178    1081.8289   -31170.349    1006.0679     1116.795    5583.4427   -110.72716 
 4188000    999.34986   -32255.303    1084.9501   -31170.353    927.92022    1122.2301    5588.7264   -194.30988 
 4192000     995.3684   -32250.987    1080.6276   -31170.359    904.92967    1123.0779    5594.2759   -218.14819 
 4196000    1005.4309   -32261.906     1091.552   -31170.354    894.23493    1023.5142    5599.5467   -129.27923 
 4200000    1010.0698    -32266.94    1096.5883   -31170.351     1052.547     1162.443    5605.1999     -109.896 
 4204000    998.37391   -32254.249    1083.8906   -31170.358    1006.3474    1152.8096    5610.0065   -146.46227 
 4208000    1005.1283   -32261.572    1091.2235   -31170.348    892.60947    1157.2374    5615.4793   -264.62789 
 4212000    1004.9072   -32261.355    1090.9835   -31170.372    940.33728    1097.7766    5621.1039    -157.4393 
 4216000    991.99932    -32247.36      1076.97    -31170.39    947.36006     1132.431    5626.0612   -185.07099 
 4220000    996.57094   -32252.258    1081.9332   -31170.325     999.1541    1052.6454    5631.0762   -53.491255 
 4224000    986.97771   -32241.858    1071.5182   -31170.339    849.80369    1109.1025    5636.7391   -259.29877 
 4228000    1000.5757   -32256.626     1086.281   -31170.345     939.8187    1072.5425    5641.9079   -132.72385 
 4232000    996.53569   -32252.211    1081.8949   -31170.316    933.95399    1051.1258    5646.7611   -117.17179 
 4236000    1002.7857   -32259.036    1088.6803   -31170.356    850.08085    1176.5219    5652.6186   -326.44109 
 4240000    1009.0634   -32265.847    1095.4957   -31170.351     1027.481    1097.0736     5657.761   -69.592662 
 4244000    1005.1681   -32261.604    1091.2668   -31170.338    1034.6855    1097.1315    5663.2129   -62.446009 
 4248000    993.12684   -32248.546    1078.1941   -31170.352    986.71067    1078.8633    5668.4078   -92.152625 
 4252000    998.49512   -32254.377    1084.0222   -31170.355    832.59921    1092.0278    5673.5083   -259.42861 
 4256000    1008.2149   -32264.885    1094.5745   -31170.311    891.10105    1065.2989    5678.9523   -174.19788 
 4260000     992.0984   -32247.392    1077.0775   -31170.315    1004.4746    1145.0273    5684.0586   -140.55268 
 4264000    1008.9107   -32265.653    1095.3299   -31170.323    842.01779     1094.819    5688.8823   -252.80121 
 4268000    996.92843   -32252.653    1082.3213   -31170.332    927.72975    1083.1764    5693.7845   -155.44669 
 4272000    1001.8475   -32257.958    1087.6617   -31170.296    990.79631    1022.8292     5698.982   -32.032918 
 4276000    1000.8199   -32256.871     1086.546   -31170.325    856.56299    1038.0525    5703.6631   -181.48949 
 4280000    1012.2311   -32269.254    1098.9347   -31170.319    921.01545     1147.754    5708.8452   -226.73852 
 4284000    1004.6271   -32260.987    1090.6794   -31170.307    1028.5658    1112.8667    5714.0462   -84.300886 
 4288000    1009.9336    -32266.74    1096.4404     -31170.3         1007    1063.1172    5719.4566   -56.117191 
 4292000    1007.9939   -32264.672    1094.3346   -31170.337     880.0796    1116.7779    5724.3472   -236.69826 
 4296000    1010.1398   -32266.955    1096.6643   -31170.291    959.31289      1079.13    5730.2107   -119.81713 
 4300000    1000.0989   -32256.086    1085.7634   -31170.322    926.35838    1063.1027    5735.1858    -136.7443 
 4304000    1007.8206   -32264.455    1094.1464   -31170.309    870.15539    1036.6115    5740.2716   -166.45609 
 4308000    996.01361    -32251.65    1081.3281   -31170.322     872.3371    1059.6603    5745.0282   -187.32317 
 4312000    1004.4924   -32260.854    1090.5332   -31170.321    980.88862    1029.2958    5749.7206   -48.407199 
 4316000    1002.5954   -32258.769    1088.4736   -31170.295    852.86022    1135.6812    5754.9759   -282.82093 
 4320000    981.77999     -32236.2    1065.8753   -31170.325    911.11486     1092.891    5760.6259   -181.77611 
 4324000    994.22947   -32249.712    1079.3911   -31170.321    1034.2861    1062.5925    5765.6613   -28.306434 
 4328000     996.4185   -32252.083    1081.7677   -31170.315    1031.4952    1080.3922    5771.3113   -48.897062 
 4332000    1006.7808   -32263.326    1093.0176   -31170.308    927.81057     1016.243     5776.381    -88.43247 
 4336000    997.66444   -32253.422    1083.1203   -31170.302    933.66638    1086.7718    5781.7623   -153.10544 
 4340000    988.35323   -32243.348    1073.0116   -31170.337    947.61089    1148.7229    5786.5419   -201.11205 
 4344000     1000.493   -32256.548    1086.1912   -31170.357    959.72696    1093.3414    5791.4191   -133.61443 
 4348000    1006.8211   -32263.415    1093.0613   -31170.353    1000.1889    1080.2019    5796.5528   -80.013002 
 4352000     999.8352   -32255.839     1085.477   -31170.362    924.01731    1105.1229    5801.9823   -181.10562 
 4356000    1016.4579   -32273.879    1103.5236   -31170.355    889.69393    1101.3301    5807.9653   -211.63622 
 4360000    996.42258   -32252.116    1081.7721   -31170.344    958.27299     1072.863     5813.381   -114.59004 
 4364000    996.32987   -32252.018    1081.6715   -31170.347    1059.0408    1106.1098    5818.3258   -47.069002 
 4368000    1000.9883   -32257.068    1086.7289   -31170.339    943.21074    1109.2772    5823.8012   -166.06647 
 4372000    1001.7436   -32257.879    1087.5489    -31170.33    937.54276    1113.2227    5829.0067   -175.67991 
 4376000    998.84159   -32254.716    1084.3983   -31170.317    930.59253    1096.2945    5834.1311   -165.70195 
 4380000    1007.9963   -32264.655    1094.3372   -31170.318    953.22149    1142.4939      5839.41   -189.27242 
 4384000    995.74134   -32251.359    1081.0325   -31170.327    867.15068    1135.0942     5844.744   -267.94352 
 4388000    997.00602   -32252.745    1082.4055    -31170.34    894.87697    1127.5384    5849.6209   -232.66138 
 4392000     996.8806   -32252.593    1082.2694   -31170.324     953.2431    1110.4064    5855.1854   -157.16331 
 4396000     1008.824   -32265.575    1095.2358   -31170.339    902.51633     1090.448    5860.4631   -187.93164 
 4400000    991.64646   -32246.927    1076.5869    -31170.34    958.12044    1070.0474    5865.6192   -111.92698 
 4404000    998.62208   -32254.499      1084.16   -31170.339    844.45446    1089.9554    5870.5455   -245.50094 
 4408000    997.84857   -32253.679    1083.3202   -31170.359     928.8786    1085.2237    5876.1829   -156.34514 
 4412000    1005.6065   -32262.098    1091.7427   -31170.355    949.34885    1061.8293     5881.586   -112.48041 
 4416000    1002.8024   -32259.054    1088.6984   -31170.355    934.78589    1080.3362    5887.2341   -145.55028 
 4420000    1004.0164   -32260.368    1090.0164   -31170.351    949.36821    1044.7594     5892.646   -95.391191 
 4424000    1000.0039   -32256.054    1085.6602   -31170.394    908.17849    1077.2224    5898.0031   -169.04395 
 4428000    1009.6694   -32266.545    1096.1536   -31170.392    903.45333    1051.3145    5903.4055   -147.86113 
 4432000    995.96603   -32251.651    1081.2765   -31170.374    999.39721    1104.8305    5908.3062   -105.43333 
 4436000    1006.4482   -32263.046    1092.6565    -31170.39    943.46904    1177.8933    5913.4159   -234.42426 
 4440000    1002.4327   -32258.684    1088.2971   -31170.387    957.76168    1063.4032    5918.5423   -105.64157 
 4444000    1003.3279   -32259.694    1089.2689   -31170.425    771.13414    1215.0944    5923.9924   -443.96029 
 4448000    1001.9783   -32258.172    1087.8038   -31170.368    886.02199    1170.9815    5929.1587   -284.95946 
 4452000    999.53079   -32255.512    1085.1466   -31170.366    954.25302    1127.1126    5934.7634   -172.85962 
 4456000    1004.1511    -32260.55    1090.1627   -31170.387    919.78318    1228.7658    5940.4848   -308.98257 
 4460000    998.89838   -32254.828      1084.46   -31170.368    955.82366     1195.474    5945.8742   -239.65038 
 4464000    990.61771   -32245.863      1075.47   -31170.393     870.7936    1132.6238    5951.6323   -261.83023 
 4468000    1000.1842   -32256.266     1085.856    -31170.41    876.59477    1122.9494    5957.0276   -246.35463 
 4472000    1009.5874   -32266.462    1096.0645   -31170.397    896.02809    1252.2175    5962.5089   -356.18945 
 4476000    1012.3992     -32269.5    1099.1172   -31170.383    864.96655    1087.4771    5967.5513   -222.51056 
 4480000    1004.3607   -32260.795    1090.3901   -31170.405    939.17863    1158.7428    5972.4011   -219.56415 
 4484000    1005.7147    -32262.26    1091.8601     -31170.4    1046.4946     1168.279    5977.5283   -121.78436 
 4488000    997.45146   -32253.289    1082.8891   -31170.399    878.94542    1166.9169    5982.6326   -287.97146 
 4492000    1003.9727   -32260.364    1089.9689   -31170.395    990.28972    1131.1774     5987.411   -140.88765 
 4496000    999.66575   -32255.674    1085.2931   -31170.381    882.13482    1173.9558    5992.4464   -291.82098 
 4500000    990.06806   -32245.276    1074.8733   -31170.402    950.39752    1107.6311     5998.283   -157.23361 
 4504000    1000.9501   -32257.068    1086.6874   -31170.381    921.83305    1117.6094    6003.1298   -195.77636 
 4508000     994.7455   -32250.379    1079.9514   -31170.428    853.43693    1104.7171    6008.2598   -251.28013 
 4512000    1005.0398   -32261.549    1091.1275   -31170.422    879.14435    1175.9287     6013.099   -296.78436 
 4516000    997.03886   -32252.851    1082.4412    -31170.41    947.10959     1077.671    6018.8239    -130.5614 
 4520000    998.16512   -32254.061    1083.6639   -31170.397    963.04182    1108.9892    6024.1703   -145.94738 
 4524000    1003.6544   -32260.024    1089.6234   -31170.401    919.05286    1078.6376    6029.5743   -159.58476 
 4528000    1002.4502     -32258.7     1088.316   -31170.384    907.48866    1143.0536    6035.0602   -235.56492 
 4532000    1003.6335   -32260.014    1089.6007   -31170.413     999.9385    1188.6647    6040.4242   -188.72616 
 4536000    1005.9484    -32262.48    1092.1138   -31170.366    881.17189    1149.3947     6046.172   -268.22279 
 4540000     999.3284   -32255.313    1084.9268   -31170.386    984.89015     1128.675    6051.8855   -143.78483 
 4544000    1008.8093   -32265.618    1095.2198   -31170.398    849.69055    1058.8093    6058.0084   -209.11872 
 4548000    999.29899    -32255.26    1084.8949   -31170.365      907.667    1153.9389     6063.866   -246.27189 
 4552000    1002.7353   -32259.011    1088.6255   -31170.385     914.4412    1123.9253    6068.8006   -209.48414 
 4556000    1003.3223   -32259.633    1089.2628    -31170.37    823.73249    1097.9373    6074.0545   -274.20486 
 4560000    999.96497   -32256.013    1085.6179   -31170.396    976.64016    1141.0985    6080.4283   -164.45836 
 4564000    1003.4202    -32259.75    1089.3691   -31170.381    940.39433    1127.4783    6085.5269   -187.08399 
 4568000     1000.904   -32257.029    1086.6374   -31170.392    979.93357    1132.9733     6090.721   -153.03969 
 4572000     1014.981   -32272.332    1101.9202   -31170.412    913.69093    1116.6925    6096.2609   -203.00156 
 4576000    998.82366   -32254.784    1084.3789   -31170.405    917.30268    1014.0926    6101.2278    -96.78995 
 4580000    1000.8383    -32256.95     1086.566   -31170.384    1011.7081    1030.3445    6106.1231   -18.636395 
 4584000     999.4083   -32255.444    1085.0136   -31170.431    904.80335    1052.9793    6111.8313   -148.17595 
 4588000    1005.6636   -32262.202    1091.8046   -31170.397    854.12347    1095.7198    6117.1033   -241.59637 
 4592000    1004.5205   -32260.984    1090.5637   -31170.421    898.21585    1083.4152    6122.9599   -185.19937 
 4596000    999.88916   -32255.949    1085.5356   -31170.414    944.64007    1080.8284    6127.9875   -136.18834 
 4600000    1012.1522    -32269.26    1098.8491   -31170.411    963.23977      1135.29    6133.4183   -172.05025 
 4604000    1008.2205   -32264.995    1094.5806   -31170.414    985.23348    1054.0219    6138.7364   -68.788464 
 4608000    998.27338   -32254.239    1083.7814   -31170.457    908.35071    1120.3089    6144.4627   -211.95823 
 4612000    994.64753   -32250.245     1079.845     -31170.4    934.22796    1060.4531     6149.391   -126.22519 
 4616000    1001.3449   -32257.576    1087.1161    -31170.46    1000.4565     1131.352    6154.6236   -130.89553 
 4620000    985.61158   -32240.469    1070.0351   -31170.434    885.78509    1093.4636    6159.4165   -207.67851 
 4624000    994.54287   -32250.142    1079.7314   -31170.411    971.68825    1101.3433    6164.8698   -129.65506 
 4628000    996.39265   -32252.142    1081.7396   -31170.402    903.20465     1194.106    6169.9122   -290.90133 
 4632000    1002.6123   -32258.906     1088.492   -31170.414    912.79824     1113.064    6175.1329   -200.26579 
 4636000    1004.4612   -32260.905    1090.4993   -31170.406    847.82341    1055.6846    6180.3729   -207.86115 
 4640000    1004.1325   -32260.545    1090.1424   -31170.402    902.77213    1197.0543    6185.3129   -294.28212 
 4644000    998.54931   -32254.517     1084.081   -31170.436    813.61298     1128.471    6191.1266   -314.85799 
 4648000    992.26895   -32247.657    1077.2627   -31170.394    879.13129    1146.3647    6196.2436   -267.23341 
 4652000    987.77806   -32242.775    1072.3871   -31170.388    945.05237    1200.6864    6201.3971   -255.63399 
 4656000    1002.4734   -32258.718    1088.3412   -31170.377    909.58302    1185.9035    6206.6542   -276.32051 
 4660000      998.471   -32254.405     1083.996   -31170.409    902.64287    1123.5866    6211.8951   -220.94377 
 4664000    1004.2473   -32260.666     1090.267   -31170.399    830.55914    1046.6589    6217.0058   -216.09971 
 4668000    994.54506   -32250.126    1079.7338   -31170.392    954.39688    1119.2696    6222.5235   -164.87273 
 4672000    996.97974   -32252.786     1082.377   -31170.409     915.8999    1098.6011    6227.3756    -182.7012 
 4676000    996.65381   -32252.441    1082.0231   -31170.418    948.71691    1057.0444    6231.9686   -108.32754 
 4680000    1002.7319   -32259.034    1088.6219   -31170.412    739.42871     1140.745    6237.5606   -401.31626 
 4684000    996.79724   -32252.626    1082.1789   -31170.447    856.12471    1057.2366    6242.3077   -201.11189 
 4688000    999.14113    -32255.13    1084.7235   -31170.407    937.67236    1014.1858    6247.6659   -76.513435 
 4692000    988.60039   -32243.694    1073.2799   -31170.414    893.49864     1074.824    6252.9103   -181.32534 
 4696000    999.14815    -32255.12    1084.7311   -31170.389     896.1916     1118.362    6258.3226   -222.17044 
 4700000    999.84692    -32255.88    1085.4898    -31170.39    1028.7542    1133.7235    6263.5766   -104.96938 
 4704000    997.87948   -32253.769    1083.3538   -31170.416    800.28241    1108.9031    6268.6466   -308.62068 
 4708000    1002.3474   -32258.639    1088.2044   -31170.435    843.48498    1178.0325    6274.1226   -334.54756 
 4712000    997.85577   -32253.762    1083.3281   -31170.434    779.34552    1073.8485     6279.437   -294.50301 
 4716000    990.75493   -32246.023     1075.619   -31170.404     858.1457    1095.2525     6284.277    -237.1068 
 4720000    991.46009   -32246.782    1076.3846   -31170.397     909.2918    1142.8815     6289.093   -233.58967 
 4724000     995.9752   -32251.663    1081.2864   -31170.377    847.27691    1159.8346    6293.8701   -312.55773 
 4728000    993.88256   -32249.404    1079.0145    -31170.39    863.68121    1054.8263    6298.9396    -191.1451 
 4732000    1003.3692   -32259.704    1089.3137    -31170.39    843.64767    1177.0265    6303.7925   -333.37885 
 4736000    1002.9009   -32259.178    1088.8053   -31170.372     972.0908    1171.3505    6308.8742   -199.25974 
 4740000    999.92436   -32255.949    1085.5738   -31170.375    933.06141    1126.9216     6314.579   -193.86021 
 4744000    1005.8827   -32262.419    1092.0426   -31170.376     896.8242    1118.9398     6319.584    -222.1156 
 4748000    994.27264    -32249.82     1079.438   -31170.382    916.00576    1085.2382    6324.6906   -169.23245 
 4752000    1002.4405   -32258.704    1088.3055   -31170.399    967.01169    1115.3511    6329.9094   -148.33946 
 4756000    987.09338   -32242.045    1071.6438   -31170.401    1002.8941    1089.7297    6334.9984   -86.835612 
 4760000    998.18585   -32254.076    1083.6864    -31170.39    879.11313    1078.1342    6340.4866   -199.02107 
 4764000    991.00686   -32246.308    1075.8925   -31170.416    1007.4758    1122.9107    6346.6203   -115.43483 
 4768000    1001.5815    -32257.76    1087.3729   -31170.388    845.16521     1104.529    6351.6276   -259.36377 
 4772000    1001.6666   -32257.892    1087.4653   -31170.426    878.37951    1038.8096    6357.3113   -160.43006 
 4776000    994.71509   -32250.317    1079.9184   -31170.398    921.06214    1150.9965    6362.5352    -229.9344 
 4780000    1003.6105   -32259.975    1089.5757   -31170.399    849.01087    1076.6299    6368.4547   -227.61903 
 4784000     1012.387   -32269.486    1099.1039   -31170.382    929.34496    1168.1464    6373.2536   -238.80141 
 4788000    990.59544   -32245.807    1075.4458   -31170.362     911.7552     1154.916     6378.423   -243.16082 
 4792000    995.29347   -32250.917    1080.5463   -31170.371    1053.1481    1055.6546    6383.5056     -2.50651 
 4796000    1008.0127   -32264.722    1094.3549   -31170.367    904.12157    1162.4452    6389.5093    -258.3236 
 4800000    992.30887   -32247.701     1077.306   -31170.395    909.16521    1024.2043     6394.501   -115.03911 
 4804000    993.13573   -32248.575    1078.2037   -31170.372    945.44911    1120.2429    6399.9674   -174.79377 
 4808000    1001.0054   -32257.115    1086.7474   -31170.368     971.3382    1150.2457    6405.7085   -178.90752 
 4812000    991.58685   -32246.888    1076.5222   -31170.366    804.87921    1061.9792    6410.9479   -257.10001 
 4816000    998.69987   -32254.631    1084.2445   -31170.386    843.68134    1167.3631     6416.248   -323.68181 
 4820000    1008.4062    -32265.15    1094.7822   -31170.367    895.61726     1135.961    6421.2702   -240.34379 
 4824000    994.89699     -32250.5    1080.1158   -31170.384    835.82489    1110.2817    6426.8044    -274.4568 
 4828000    1009.8363   -32266.716    1096.3348   -31170.381    814.63651    1166.4214    6432.0698   -351.78485 
 4832000    1009.2109   -32266.034    1095.6558   -31170.378    924.41158    1175.6667    6437.5009   -251.25516 
 4836000     992.3138    -32247.72    1077.3114   -31170.408    977.17451    1158.2261    6442.5436   -181.05156 
 4840000    999.78642    -32255.79    1085.4241   -31170.366    973.42556      1110.79    6448.3996   -137.36443 
 4844000    1004.2535   -32260.644    1090.2738    -31170.37    916.19204    1073.0191    6453.8222   -156.82703 
 4848000    997.11534    -32252.88    1082.5242   -31170.356    957.43228    1132.5837    6459.0637   -175.15143 
 4852000    988.36962   -32243.406    1073.0294   -31170.377    964.68332    1139.0797    6464.1174   -174.39637 
 4856000    1011.6118   -32268.627    1098.2623   -31170.365    810.46664     1127.497    6469.1585   -317.03036 
 4860000    1005.3127   -32261.783    1091.4237    -31170.36    876.48683    1070.1857     6475.049   -193.69887 
 4864000    1005.1834   -32261.631    1091.2834   -31170.347    950.77063    1169.4555    6479.8209   -218.68482 
 4868000    1004.7482   -32261.173    1090.8108   -31170.362    925.27059    1136.5768    6485.1009   -211.30622 
 4872000    995.70657   -32251.368    1080.9948   -31170.373    935.77198    1160.2598    6490.1532   -224.48786 
 4876000     997.0908   -32252.863    1082.4976   -31170.366     956.4952    1158.2261     6495.161   -201.73093 
 4880000    1002.1759   -32258.383    1088.0182   -31170.364    866.35775    1073.3742    6500.4577   -207.01647 
 4884000    989.20421   -32244.285    1073.9354    -31170.35    930.59283    1126.3074    6505.4196   -195.71453 
 4888000    993.96968   -32249.469    1079.1091    -31170.36    778.67193    1130.4894    6510.6556   -351.81745 
 4892000    998.64442   -32254.534    1084.1843    -31170.35     877.1877    1100.9961    6515.6625    -223.8084 
 4896000    1008.0767   -32264.819    1094.4245   -31170.395    955.72105     1098.103    6520.9625    -142.3819 
 4900000    999.68589     -32255.7    1085.3149   -31170.385    852.82254     1078.764    6527.0232   -225.94148 
 4904000    1000.0295   -32256.058     1085.688    -31170.37    908.38942    1171.7923    6532.5724   -263.40284 
 4908000    1004.1748   -32260.569    1090.1883    -31170.38    939.22558    1140.0042    6538.0505   -200.77867 
 4912000    1002.1719   -32258.389    1088.0139   -31170.375    948.28903     1139.393     6543.517   -191.10394 
 4916000    988.86585   -32243.957    1073.5681   -31170.389    961.86125    1113.1272    6549.4866   -151.26598 
 4920000    1010.5046   -32267.437    1097.0603   -31170.376    1017.6169    1130.5002    6555.0589   -112.88326 
 4924000    1007.1929   -32263.806     1093.465   -31170.341    926.36996    1123.9042    6561.2167   -197.53427 
 4928000    996.50518   -32252.247    1081.8618   -31170.385    925.36233    1069.6507    6566.5622   -144.28835 
 4932000    1003.9618   -32260.344    1089.9571   -31170.387    982.97508    1107.8574    6572.0188   -124.88229 
 4936000    995.72232   -32251.389    1081.0119   -31170.377    961.36178    1108.6288    6577.4788   -147.26704 
 4940000    999.89374   -32255.916    1085.5406   -31170.375    944.81732    1102.0083    6582.5166   -157.19099 
 4944000    995.90179   -32251.563    1081.2067   -31170.357    852.23721    1105.0808    6587.7592   -252.84357 
 4948000    1000.9112   -32257.022    1086.6452   -31170.376    844.59073    1107.5144    6593.2287   -262.92368 
 4952000    997.21228   -32252.989    1082.6295    -31170.36    781.30751    1072.2099    6598.7229   -290.90234 
 4956000    997.22872   -32253.032    1082.6473   -31170.385    821.45503    1108.9912    6604.4936   -287.53617 
 4960000    1007.0234   -32263.633    1093.2809   -31170.352    915.19865    1117.4055    6609.9945   -202.20686 
 4964000    997.91111   -32253.785    1083.3881   -31170.397    891.74677    1168.2497    6614.9028    -276.5029 
 4968000    1004.7344   -32261.191    1090.7959   -31170.395    905.04797    1101.0315    6620.2261   -195.98353 
 4972000    991.35296   -32246.654    1076.2682   -31170.386    967.10259    1112.1815    6626.1495   -145.07895 
 4976000    1004.7281   -32261.176    1090.7891   -31170.387    923.85446    1048.0458    6631.3433   -124.19134 
 4980000    1001.1677   -32257.282    1086.9237   -31170.359    899.96085    1073.0231    6636.6445   -173.06226 
 4984000    998.56255   -32254.453    1084.0954   -31170.358    866.92443    1094.1844     6642.356   -227.25996 
 4988000       994.62     -32250.2    1079.8151   -31170.385    837.67429    1066.7131    6647.4613   -229.03877 
 4992000     1003.593   -32259.952    1089.5568   -31170.395    893.20499    1120.9092    6652.6925   -227.70419 
 4996000    992.50473   -32247.917    1077.5187   -31170.398    937.34541    1110.4426     6657.807   -173.09724 
 5000000    999.31857   -32255.266    1084.9162    -31170.35     928.1794    1170.9845     6662.633   -242.80515 
 5004000    1004.7536   -32261.184    1090.8168   -31170.367    827.86806    1189.1285    6668.0951   -361.26046 
 5008000    1002.9023   -32259.168    1088.8068   -31170.362    920.73475     1047.098    6673.4353   -126.36323 
 5012000    994.78966   -32250.359    1079.9993   -31170.359    944.66003    1152.7894    6678.8389   -208.12936 
 5016000    1003.7614   -32260.103    1089.7395   -31170.364    920.40182    1092.4251    6684.0997   -172.02327 
 5020000     1000.087   -32256.108    1085.7504   -31170.357    963.63559    1104.7678    6690.1302   -141.13217 
 5024000    1008.0095   -32264.698    1094.3515   -31170.346    1017.5667    1131.0166    6694.9132   -113.44982 
 5028000    989.71832   -32244.864    1074.4936   -31170.371    938.87146    1083.4819    6701.0498   -144.61045 
 5032000    996.54485   -32252.243    1081.9049   -31170.338    894.10804    1143.9277     6705.909   -249.81969 
 5036000    1001.3286    -32257.46    1087.0984   -31170.362    904.97516    1080.3144    6711.1093   -175.33919 
 5040000    997.59753   -32253.382    1083.0477   -31170.334    912.80217    1176.6138    6716.7914   -263.81161 
 5044000     1008.871   -32265.627    1095.2869   -31170.341     1036.585     1046.386     6721.768   -9.8010049 
 5048000    1005.1979   -32261.643    1091.2991   -31170.344    974.34963    1146.6321    6727.4368   -172.28251 
 5052000    992.66186   -32248.028    1077.6893   -31170.338    942.06741    1112.0285    6732.4715   -169.96108 
 5056000    996.88878   -32252.656    1082.2782   -31170.378    933.96193    1133.2819    6738.3656   -199.31999 
 5060000     1004.479   -32260.884    1090.5186   -31170.366    896.34564    1141.9335    6743.8688   -245.58783 
 5064000    999.26127   -32255.211     1084.854   -31170.357      914.985     1105.451    6749.1806   -190.46604 
 5068000    1001.1139   -32257.244    1086.8653   -31170.378    949.18837    1121.4831    6755.2967   -172.29469 
 5072000    1002.0598   -32258.251    1087.8922   -31170.359    839.64247    1032.7125    6761.0202   -193.07004 
 5076000    1011.0266   -32267.986     1097.627   -31170.359    924.36932    1096.9306    6766.2747   -172.56127 
 5080000    1005.9547   -32262.502    1092.1207   -31170.381     919.9067    1043.3353    6771.4781   -123.42865 
 5084000    996.45268    -32252.16    1081.8048   -31170.356    931.51212    1177.3521     6777.223   -245.84002 
 5088000    1003.1246     -32259.4    1089.0482   -31170.351    923.44376    1081.7547    6782.5141   -158.31097 
 5092000    999.26907   -32255.213    1084.8624    -31170.35    896.39763    1057.6494    6787.9878   -161.25179 
 5096000    999.42795     -32255.4    1085.0349   -31170.365     878.1988    1111.9592    6792.7929   -233.76039 
 5100000    1009.3299   -32266.126     1095.785    -31170.34    872.24989    1101.1553     6798.309   -228.90546 
 5104000    1004.3575   -32260.763    1090.3867   -31170.376    930.27885     1123.252    6803.5501    -192.9731 
 5108000    996.57829   -32252.299    1081.9412   -31170.358    1027.8281    1152.6662    6808.6293   -124.83804 
 5112000     999.5491   -32255.521    1085.1664   -31170.355    905.15724    1131.9123    6813.7513   -226.75507 
 5116000    995.04477   -32250.646    1080.2763    -31170.37    872.44079    1101.3145    6818.7467   -228.87371 
 5120000    1010.8613   -32267.835    1097.4476   -31170.387    871.26284    1165.3523    6823.8673   -294.08947 
 5124000    995.93424   -32251.614    1081.2419   -31170.372    863.87119    1121.7544     6828.764   -257.88318 
 5128000     1007.298   -32263.936     1093.579   -31170.357    979.08007    1151.8565    6833.4374   -172.77643 
 5132000    994.18532   -32249.728    1079.3432   -31170.385    846.13713    1191.0693     6838.695    -344.9322 
 5136000    978.34786   -32232.533    1062.1492   -31170.384    914.62034    1058.9426    6843.7524   -144.32225 
 5140000    1000.9557   -32257.056    1086.6935   -31170.362    942.10038    1188.5275    6849.3204   -246.42712 
 5144000    1010.5813   -32267.482    1097.1437   -31170.338    1017.3691    1158.5653    6854.6885   -141.19622 
 5148000    995.56319   -32251.199    1080.8391    -31170.36     1023.353     1038.151    6859.6441      -14.798 
 5152000    991.95934   -32247.276    1076.9266   -31170.349    1020.4047    1062.6598    6865.1059   -42.255079 
 5156000    996.82535   -32252.583    1082.2094   -31170.374    859.62457    1104.4846    6870.1561   -244.86006 
 5160000    1002.4363    -32258.67    1088.3009    -31170.37    982.19061    1074.1081    6875.3084   -91.917496 
 5164000    1008.8485   -32265.614    1095.2624   -31170.352    902.25919    1086.4726    6880.5087   -184.21341 
 5168000    996.08279    -32251.78    1081.4032   -31170.377     981.4038    1038.3316    6885.5265   -56.927798 
 5172000    998.75275   -32254.643    1084.3019   -31170.341    935.35545    1106.2129     6890.596   -170.85748 
 5176000    1000.0168   -32256.027    1085.6742   -31170.353     913.2938    1101.0963    6896.3378   -187.80248 
 5180000    1003.3894   -32259.701    1089.3357   -31170.366    897.21578    1111.1831    6901.6657   -213.96735 
 5184000    1014.0213   -32271.214    1100.8782   -31170.336    1013.8843    1104.3791     6906.669   -90.494813 
 5188000    994.64761   -32250.222    1079.8451   -31170.377    1009.5832    1135.3399    6912.3013   -125.75667 
 5192000    998.73057   -32254.602    1084.2778   -31170.324     963.7182    1085.7993    6917.7956   -122.08106 
 5196000    1004.7536   -32261.192    1090.8167   -31170.375    998.84041    1160.0871    6922.8451   -161.24669 
 5200000    1003.8889   -32260.228     1089.878    -31170.35    895.31352    1048.2215    6928.0478   -152.90802 
 5204000    1006.8767   -32263.446    1093.1217   -31170.324    900.01962    1122.2172    6933.4312   -222.19755 
 5208000    1004.5228   -32260.918    1090.5661   -31170.352    935.43901     1202.376    6938.4207   -266.93701 
 5212000    1000.4307   -32256.461    1086.1235   -31170.337     912.9604    1146.5384    6943.5387   -233.57802 
 5216000    998.32916   -32254.195     1083.842   -31170.353    880.23065    1058.1102    6948.6762   -177.87954 
 5220000     1002.535   -32258.752    1088.4081   -31170.344    851.39901    1161.8144    6954.2198   -310.41543 
 5224000    1009.1361   -32265.937    1095.5746   -31170.363    912.76946    1077.4372    6959.6351   -164.66776 
 5228000    1002.3959   -32258.607    1088.2571    -31170.35    868.41667    1132.8037    6965.7796     -264.387 
 5232000    1001.1504   -32257.242    1086.9048   -31170.337    946.13607    1016.7208    6971.2767   -70.584716 
 5236000    1005.5099   -32261.988    1091.6379    -31170.35    881.40962    1045.5918    6976.9441   -164.18222 
 5240000    999.10093   -32255.024    1084.6799   -31170.344    834.55559    1159.4992    6982.3557   -324.94366 
 5244000    998.01061   -32253.841    1083.4962   -31170.345     938.7229    1141.4956    6987.8233   -202.77266 
 5248000    1000.5771   -32256.652    1086.2825    -31170.37    959.59722    1154.6208    6993.9312   -195.02353 
 5252000    1005.6445   -32262.154    1091.7839    -31170.37    1031.2734    1203.3318    6999.3509   -172.05836 
 5256000    994.87146   -32250.431    1080.0881   -31170.343     982.3122    1120.8254    7004.8212   -138.51318 
 5260000    1003.5448   -32259.838    1089.5044   -31170.334    890.08266    1116.1518    7009.9436   -226.06914 
 5264000    1000.7803   -32256.846     1086.503   -31170.343    933.67039    1116.0637    7015.7104   -182.39328 
 5268000    999.82173   -32255.831    1085.4624   -31170.368    949.37891    1108.4647    7020.8515    -159.0858 
 5272000    1018.7886   -32276.408    1106.0539   -31170.354    926.69397    1191.1495    7026.0676   -264.45551 
 5276000    993.91322   -32249.417    1079.0478    -31170.37    855.13104    1131.9754    7031.4129    -276.8444 
 5280000    997.83605   -32253.667    1083.3067    -31170.36    993.24652    1107.9311    7037.0187   -114.68459 
 5284000    1009.7847   -32266.639    1096.2788    -31170.36    780.82432    1016.6724    7042.5475   -235.84809 
 5288000    985.67591    -32240.44    1070.1049   -31170.336    911.68295    1051.9502    7047.7284   -140.26721 
 5292000    996.08994   -32251.776     1081.411   -31170.365     910.5281    1205.7227     7053.594   -295.19459 
 5296000    1002.0903   -32258.272    1087.9253   -31170.347    1012.2772    1169.8059    7058.7061    -157.5287 
 5300000    1000.9067   -32256.976    1086.6403   -31170.336     842.7034    1126.6317    7063.8442   -283.92827 
 5304000    991.99487   -32247.354    1076.9651   -31170.389    891.06149     1064.824    7069.5242   -173.76253 
 5308000    1000.6414   -32256.718    1086.3523   -31170.366    863.02337    1176.2968    7074.5009   -313.27341 
 5312000    1002.7907   -32259.017    1088.6856   -31170.331    884.42538    1121.1472    7080.1542    -236.7218 
 5316000    1014.3002   -32271.535    1101.1811   -31170.354    940.83348    1209.4671    7084.9032   -268.63365 
 5320000    998.26117   -32254.143    1083.7682   -31170.375    840.41097     1156.661    7089.4471   -316.25001 
 5324000    1006.2446   -32262.785    1092.4355   -31170.349     920.0942    1221.8136     7094.754   -301.71942 
 5328000    1008.8935   -32265.646    1095.3112   -31170.335    887.33942    1195.2262    7100.0663    -307.8868 
 5332000    994.70612    -32250.24    1079.9086   -31170.331    949.25609    1126.4712    7105.9237    -177.2151 
 5336000    998.12038   -32253.981    1083.6153   -31170.366    987.03508    1109.3741    7111.2512   -122.33899 
 5340000    999.33767   -32255.276    1084.9369   -31170.339     1021.026    1165.9499    7116.4781   -144.92395 
 5344000    1000.6337   -32256.709    1086.3439   -31170.365    957.21476    1125.3835    7121.4915   -168.16875 
 5348000    1006.7113   -32263.281    1092.9421   -31170.339    996.21076    1137.3689    7126.6402   -141.15817 
 5352000     994.0966   -32249.575    1079.2469   -31170.328     895.5864    1141.8013    7132.2695   -246.21489 
 5356000    996.23626   -32251.918    1081.5698   -31170.349    872.38798    1089.6359    7137.2768   -217.24796 
 5360000    999.66653   -32255.597    1085.2939   -31170.303    1019.4505    1063.6279    7142.7369   -44.177378 
 5364000    1006.8406   -32263.438    1093.0825   -31170.356    821.27297    1093.8273    7147.4732   -272.55435 
 5368000    993.18984   -32248.598    1078.2625   -31170.336    888.68318    1092.0536    7153.3464   -203.37042 
 5372000    1015.9276   -32273.262    1102.9478   -31170.315    942.42404     1108.345     7158.751   -165.92095 
 5376000    1011.7077   -32268.687    1098.3665   -31170.321    941.27639    1103.1193    7164.0854   -161.84292 
 5380000    992.68167    -32248.05    1077.7108   -31170.339    921.77628    1140.3306    7169.6109   -218.55433 
 5384000    1008.9916   -32265.723    1095.4178   -31170.305    964.27117    1140.7801     7175.144   -176.50894 
 5388000     999.7563   -32255.722    1085.3914   -31170.331    794.81739    1136.0767    7180.2566   -341.25934 
 5392000    1000.3451   -32256.334    1086.0306   -31170.303    948.43656    1130.0405    7185.4207   -181.60395 
 5396000     991.4208   -32246.687    1076.3419   -31170.345    899.93869    1138.2951    7190.8431   -238.35641 
 5400000    1003.0453   -32259.272    1088.9622    -31170.31    999.24726    1129.5691    7196.0403    -130.3218 
 5404000     1008.113   -32264.765    1094.4639   -31170.301    924.22767    1037.0713    7201.3429   -112.84364 
 5408000    1001.5574    -32257.65    1087.3467   -31170.303    930.80404    1092.6775    7207.0963   -161.87345 
 5412000    1006.4241   -32262.935    1092.6303   -31170.305    870.93515    1074.9845    7212.7113   -204.04936 
 5416000    1001.5488   -32257.647    1087.3375    -31170.31    891.98752    1022.3575     7217.719   -130.37002 
 5420000    1001.3995   -32257.443    1087.1754   -31170.268    1026.9193    1153.0722    7223.1597   -126.15284 
 5424000    1002.0756   -32258.197    1087.9093   -31170.288    976.87263    1077.1853    7228.1871   -100.31267 
 5428000    996.07042    -32251.69    1081.3898     -31170.3    794.65414    1126.8529    7233.4878   -332.19874 
 5432000    1009.4713   -32266.218    1095.9385   -31170.279    885.87606    1061.4578     7238.611   -175.58174 
 5436000    1003.9621    -32260.22    1089.9574   -31170.262    868.07457    1067.0622     7243.733   -198.98762 
 5440000    993.59128   -32249.022    1078.6983   -31170.324    903.46468    1105.8075    7248.9516   -202.34286 
 5444000     999.9836   -32255.927    1085.6381   -31170.289    944.13176    1038.3751    7254.2241   -94.243326 
 5448000    990.41146   -32245.569    1075.2461   -31170.322    822.06989    1138.1437    7259.4387   -316.07376 
 5452000     990.0808   -32245.185    1074.8871   -31170.298    856.67606    1135.8631     7264.572   -279.18707 
 5456000    1006.0951   -32262.558    1092.2731   -31170.285     908.6004    1193.1372    7269.8473   -284.53675 
 5460000    992.52884   -32247.836    1077.5448   -31170.291    955.00433    1014.4448     7275.013   -59.440454 
 5464000    1002.2249   -32258.322    1088.0714   -31170.251    989.75618     1071.801    7280.2258   -82.044848 
 5468000    995.51359   -32251.043    1080.7853   -31170.257    805.09492    1126.0008    7285.6449   -320.90587 
 5472000    999.57115   -32255.482    1085.1904   -31170.292    935.63108    1142.6767    7291.1024   -207.04561 
 5476000    1004.2286   -32260.533    1090.2468   -31170.287    882.09636     1113.941     7296.159   -231.84461 
 5480000    991.42203    -32246.64    1076.3432   -31170.297    871.90853    1104.8923     7302.163   -232.98376 
 5484000    989.59434   -32244.621     1074.359   -31170.262     959.3949     1070.469    7307.6478   -111.07406 
 5488000    1004.4168   -32260.726    1090.4511   -31170.275     953.2157    1116.8069    7313.0092    -163.5912 
 5492000    994.95462    -32250.51    1080.1784   -31170.331    819.62422    1088.6938    7318.3431   -269.06955 
 5496000    1016.8786   -32274.286    1103.9803   -31170.305    981.09895    1188.2248     7324.015   -207.12585 
 5500000    996.77489   -32252.476    1082.1546   -31170.322    1021.7023    1044.4273    7329.1572   -22.724973 
 5504000    1003.7018   -32259.989    1089.6748   -31170.314    847.96913     1028.488    7333.8427   -180.51885 
 5508000    1005.8607   -32262.286    1092.0187   -31170.268     908.8635    1087.2068    7339.3806   -178.34331 
 5512000    994.41452     -32249.9    1079.5921   -31170.308    852.74138     1151.489    7344.6751   -298.74764 
 5516000    998.87628   -32254.707     1084.436   -31170.271    962.73459    1080.3666    7349.5335     -117.632 
 5520000    1005.9585   -32262.405    1092.1248   -31170.281    840.11508    1167.3617    7354.6838   -327.24666 
 5524000    985.16421   -32239.831    1069.5494   -31170.282    957.49243     1093.799    7359.7166    -136.3066 
 5528000    1004.7919   -32261.128    1090.8583    -31170.27    937.43272    1056.1621    7365.1678   -118.72935 
 5532000    1012.0073   -32268.955    1098.6918   -31170.263    939.52351    1196.1217    7370.2828   -256.59815 
 5536000    995.51099   -32251.071    1080.7824   -31170.289    855.05186     1097.528    7375.7963   -242.47615 
 5540000    994.35188     -32249.8     1079.524   -31170.276    947.12538    1084.9788    7380.5114   -137.85342 
 5544000    1006.0379   -32262.496    1092.2111   -31170.285     870.6438    1208.2679    7386.1941   -337.62408 
 5548000    999.72191   -32255.635     1085.354   -31170.281    972.49271    1100.7178    7391.3696    -128.2251 
 5552000    996.81369   -32252.487    1082.1967   -31170.291    879.37122    1186.3066    7397.0924   -306.93539 
 5556000    1004.1651   -32260.439    1090.1778   -31170.262      927.831    1083.3941    7402.5763   -155.56309 
 5560000    1003.8472   -32260.121    1089.8327   -31170.288    972.40149    1101.9961     7408.225   -129.59465 
 5564000    1003.6003   -32259.873    1089.5646   -31170.308    890.30553    1152.4425    7413.3435   -262.13694 
 5568000     1002.193   -32258.302    1088.0367   -31170.265    1049.5774    1076.9535    7418.5587    -27.37611 
 5572000    988.32655   -32243.277    1072.9826   -31170.294    936.30847    1067.3099    7423.8612   -131.00146 
 5576000    1001.2567   -32257.261    1087.0203   -31170.241     941.3008    1109.8089     7429.951   -168.50815 
 5580000    994.78113   -32250.274    1079.9901   -31170.284    911.46854    1096.9723    7435.4081   -185.50372 
 5584000    998.74571   -32254.586    1084.2942   -31170.292    920.50149    1084.6856    7441.0247   -164.18408 
 5588000    999.44865   -32255.337    1085.0574    -31170.28    959.83079    1083.6488    7446.3595   -123.81805 
 5592000     1003.422    -32259.65    1089.3711   -31170.278    905.92176    1101.6642    7450.9543   -195.74241 
 5596000    999.42501   -32255.298    1085.0317   -31170.267    878.30866    1131.1089    7456.4008   -252.80022 
 5600000    1001.8376   -32257.931     1087.651    -31170.28    942.35947    1105.3658    7461.9228   -163.00632 
 5604000    1000.0209   -32255.945    1085.6787   -31170.266    883.01655    1030.6082    7466.9536   -147.59168 
 5608000    1008.3601   -32264.972    1094.7321    -31170.24    966.15642    1140.9364    7472.5263   -174.77997 
 5612000    996.66799   -32252.287    1082.0385   -31170.249    937.96319    1049.5089    7478.1664   -111.54573 
 5616000    998.55302   -32254.373     1084.085   -31170.288    1099.8541    1138.2495    7483.4547   -38.395346 
 5620000    1000.9217   -32256.935    1086.6566   -31170.278    1010.9421    1128.3764     7488.453   -117.43431 
 5624000    994.35726   -32249.803    1079.5299   -31170.273    898.36843    1083.4826    7494.3003   -185.11415 
 5628000    1004.7827   -32261.126    1090.8483   -31170.277    979.06474    1133.6119     7499.752   -154.54715 
 5632000    999.46251   -32255.354    1085.0724   -31170.281     883.6009    1094.7184    7505.7368   -211.11751 
 5636000    1004.0083   -32260.293    1090.0076   -31170.286    981.59936    1155.1377    7510.6136   -173.53833 
 5640000     1001.013   -32257.025    1086.7557   -31170.269    916.81106    1126.0131    7516.0437     -209.202 
 5644000    1003.4264   -32259.707    1089.3758   -31170.331    917.44796    1051.7116     7521.033    -134.2636 
 5648000    995.54113   -32251.107    1080.8152   -31170.291    860.01266    1088.4613    7525.8262   -228.44865 
 5652000    996.24572   -32251.902    1081.5801   -31170.322    916.69872    1157.6709     7531.455   -240.97215 
 5656000    1020.5107   -32278.221    1107.9235   -31170.297    922.12766    1168.1299    7536.8449   -246.00227 
 5660000    1009.4764   -32266.245     1095.944   -31170.301    958.69965    1069.8649    7541.7486   -111.16525 
 5664000    994.42361   -32249.918    1079.6019   -31170.316    868.48992    1118.1124    7546.7649   -249.62253 
 5668000    1003.3354   -32259.592    1089.2771   -31170.315    1018.6927    1120.5002    7551.7845   -101.80754 
 5672000    996.13247   -32251.756    1081.4572   -31170.299    985.66852    1066.2546    7556.8083   -80.586107 
 5676000    994.67262   -32250.193    1079.8723    -31170.32    983.48542    1120.6075    7562.3142   -137.12205 
 5680000    1002.0571   -32258.205    1087.8893   -31170.316    982.80128    1126.3676    7567.5054   -143.56633 
 5684000    999.95612   -32255.931    1085.6083   -31170.323     846.7586    1193.6477    7572.8633   -346.88907 
 5688000    996.77724   -32252.459    1082.1571   -31170.302    923.05946    1123.4025    7578.0944   -200.34303 
 5692000    1012.8917   -32269.952    1099.6519     -31170.3    994.45722    1100.6228    7583.5894   -106.16553 
 5696000    997.02274   -32252.733    1082.4237   -31170.309    932.77332    1113.7916    7588.3963   -181.01831 
 5700000    993.34527   -32248.708    1078.4312   -31170.276    915.51728    1031.8551    7593.5114   -116.33779 
 5704000    997.75293    -32253.52    1083.2164   -31170.304    916.76409    1018.5848     7599.138   -101.82074 
 5708000    990.75407   -32245.934    1075.6181   -31170.316    963.71441    1030.5616    7604.4257     -66.8472 
 5712000    1011.2234   -32268.149    1097.8407   -31170.308    1051.0861    1073.3512    7609.7035   -22.265151 
 5716000     1014.506   -32271.741    1101.4045   -31170.336      933.955    1158.4767    7615.1934   -224.52174 
 5720000    1016.0444   -32273.394    1103.0746    -31170.32    924.07165     1091.888    7620.8462    -167.8164 
 5724000    997.19864   -32252.912    1082.6146   -31170.298    943.73328       1033.5    7626.4547   -89.766744 
 5728000    1000.5645   -32256.609    1086.2688    -31170.34    921.91802    1120.1106    7631.2081   -198.19261 
 5732000    996.87076   -32252.579    1082.2587   -31170.321    993.35682    1113.2276    7636.7535   -119.87083 
 5736000     993.6802   -32249.129    1078.7948   -31170.335    967.49806    1043.2857    7642.0781   -75.787674 
 5740000    1002.7098   -32258.919    1088.5979   -31170.321    894.44072    1086.8358    7646.9149    -192.3951 
 5744000    1002.0884   -32258.264    1087.9233   -31170.341    900.38367    1137.6314    7652.2909   -237.24769 
 5748000    992.64421    -32248.02    1077.6701    -31170.35    912.31465    1202.5349    7657.5242   -290.22026 
 5752000    994.08763   -32249.604    1079.2372   -31170.366    878.46967    1084.0022    7662.9609   -205.53252 
 5756000    1004.0405    -32260.39    1090.0426   -31170.348    884.05478     1169.382    7668.0819   -285.32723 
 5760000      1003.24   -32259.519    1089.1735   -31170.346    904.53309    1146.6405    7674.0859   -242.10744 
 5764000    998.49139   -32254.342    1084.0181   -31170.323    945.61746    1134.5252    7679.1499   -188.90778 
 5768000    1004.3545   -32260.708    1090.3835   -31170.324    1024.5664    1096.3766    7684.3744   -71.810182 
 5772000    989.94462   -32245.062    1074.7393   -31170.323     895.7031    1052.6265    7689.9506   -156.92337 
 5776000     1003.613   -32259.906    1089.5784   -31170.327    957.87505    1078.0474    7695.0532   -120.17235 
 5780000    995.00716   -32250.566    1080.2355    -31170.33    919.39035    1090.5826    7700.6015   -171.19224 
 5784000    991.65481   -32246.915    1076.5959   -31170.319    973.75086    1106.2546    7706.0249   -132.50371 
 5788000    998.15336   -32253.963    1083.6511   -31170.312    991.33027    1042.4872    7711.4122    -51.15697 
 5792000    1004.8232   -32261.231    1090.8923   -31170.338    952.20483     1068.555    7716.7711    -116.3502 
 5796000    1012.5903   -32269.649    1099.3247   -31170.324    1074.1217    1093.4562    7722.1436   -19.334561 
 5800000     1000.525   -32256.548    1086.2259   -31170.322    959.53301    1125.7701    7727.5817   -166.23707 
 5804000    1005.3038   -32261.715    1091.4141   -31170.301    913.51863    1156.0955    7732.8255   -242.57684 
 5808000    1002.5395   -32258.737     1088.413   -31170.324    916.46774    1037.6563    7737.6469   -121.18856 
 5812000    1000.8357   -32256.881    1086.5632   -31170.318    952.41262    1128.8251    7742.6823   -176.41252 
 5816000    997.97656   -32253.792    1083.4592   -31170.333    890.22692    1126.7388    7748.0464   -236.51192 
 5820000     1009.321   -32266.103    1095.7753   -31170.328    885.08608    1100.9011    7753.0313   -215.81504 
 5824000    998.46915   -32254.326     1083.994   -31170.332    894.72112    1122.8933    7758.8789   -228.17221 
 5828000    993.83539   -32249.294    1078.9633   -31170.331    948.70447    1107.2177    7764.2944   -158.51321 
 5832000    1004.3946   -32260.737     1090.427    -31170.31    922.89958    1107.0243    7769.3265   -184.12474 
 5836000    999.72727   -32255.703    1085.3599   -31170.343     894.0417    1092.0387    7774.6043   -197.99698 
 5840000    1000.7158   -32256.776    1086.4331   -31170.342    1015.9966    1127.9427    7779.7809    -111.9461 
 5844000    1002.7716       -32259     1088.665   -31170.335    1025.7881    1134.7813     7785.115   -108.99319 
 5848000    1004.1675   -32260.506    1090.1804   -31170.325    886.54978    1210.7899    7790.5296    -324.2401 
 5852000    992.10245   -32247.412    1077.0819    -31170.33    956.15658    1086.1497    7795.5973   -129.99314 
 5856000    1006.6492   -32263.187    1092.8747   -31170.313    825.84003    1113.9886    7801.0297   -288.14855 
 5860000    998.92075   -32254.792    1084.4843   -31170.308    985.32074    1139.4165    7806.0804   -154.09572 
 5864000    998.29845   -32254.125    1083.8087   -31170.316    902.64087    1221.6542    7811.2759   -319.01331 
 5868000    1003.2688   -32259.523    1089.2047   -31170.318    921.39445     1141.991    7816.6429   -220.59651 
 5872000    1017.1874   -32274.627    1104.3156   -31170.311    953.62338     1123.204    7822.1459   -169.58064 
 5876000    1002.7686   -32258.994    1088.6617   -31170.332    926.12751    1199.6749    7827.2691   -273.54741 
 5880000    1004.2798   -32260.632    1090.3023   -31170.329     894.2747    1190.2181    7833.0055   -295.94344 
 5884000    994.82238   -32250.378    1080.0348   -31170.343    830.00276    1082.8673    7838.4449   -252.86456 
 5888000    1011.4348   -32268.401    1098.0702   -31170.331    912.30817    1180.2969    7843.7168   -267.98871 
 5892000    1003.7266   -32260.048    1089.7018   -31170.346    912.07412    1114.2891    7849.2267   -202.21499 
 5896000    1001.9478   -32258.093    1087.7707   -31170.323    1028.3604     1097.251    7855.2491   -68.890556 
 5900000    998.43723   -32254.281    1083.9593   -31170.322    867.24119    1060.9408    7860.6231   -193.69958 
 5904000    994.49214   -32250.002    1079.6763   -31170.326    901.69466    1123.8909    7865.9077   -222.19626 
 5908000    996.06259   -32251.695    1081.3813   -31170.313    961.56472    1152.1469    7870.7771   -190.58214 
 5912000    1001.4208   -32257.527    1087.1984   -31170.328    828.44104    1066.5901    7876.2358   -238.14908 
 5916000     991.1506   -32246.371    1076.0486   -31170.322    933.94667     1160.319    7881.8098    -226.3723 
 5920000    1000.9367   -32256.978    1086.6729   -31170.306    863.05705    1079.6657    7886.6658    -216.6086 
 5924000    999.86133   -32255.777    1085.5054   -31170.272     868.0407     1133.916     7891.645   -265.87526 
 5928000    1001.0758   -32257.119    1086.8239   -31170.295     932.2418    1130.4413    7896.8498   -198.19949 
 5932000    996.76505   -32252.492    1082.1439   -31170.348    859.79623    1072.0615    7901.7081   -212.26522 
 5936000    998.20774   -32254.031    1083.7102   -31170.321    867.07105    1138.6331    7907.0934   -271.56204 
 5940000    1004.9389   -32261.299    1091.0179   -31170.281    865.65303    1117.3143    7911.9618   -251.66124 
 5944000    989.19779   -32244.255    1073.9285   -31170.326    941.12989    1037.9889    7916.9716   -96.858976 
 5948000    998.92805    -32254.84    1084.4922   -31170.348    913.40728    1167.1396    7921.8629   -253.73236 
 5952000    1014.4993   -32271.696    1101.3972   -31170.299    911.90897    1145.2959    7927.5219   -233.38691 
 5956000    1007.8688    -32264.54    1094.1987   -31170.342    956.28053    1098.0418     7933.251   -141.76124 
 5960000    1003.4728   -32259.737    1089.4262    -31170.31    885.13466    1195.6005    7938.1854   -310.46585 
 5964000    1003.8417   -32260.156    1089.8267    -31170.33    1040.6452    1025.7887    7943.6973    14.856486 
 5968000    1005.3509   -32261.758    1091.4652   -31170.293    875.76713    1138.1381    7948.4614   -262.37098 
 5972000    997.97423   -32253.768    1083.4567   -31170.312    918.66544    1164.7795    7953.7808   -246.11411 
 5976000    1004.4759   -32260.802    1090.5152   -31170.287    1004.9049    1119.5825    7959.7694    -114.6776 
 5980000      1000.46   -32256.449    1086.1553   -31170.294     956.3963    1203.6171    7965.0761   -247.22078 
 5984000    996.22844   -32251.852    1081.5613   -31170.291    868.95846    1116.1428    7970.5153   -247.18439 
 5988000    1003.1798   -32259.405    1089.1082   -31170.297    1041.2378    1138.6119    7976.2766   -97.374147 
 5992000    992.78635   -32248.126    1077.8244   -31170.301    899.58694    1205.6639    7981.5477   -306.07697 
 5996000    1003.6093   -32259.876    1089.5744   -31170.302    1010.0754    1124.3573     7987.113   -114.28185 
 6000000    1008.8835   -32265.581    1095.3004    -31170.28    933.82715    1080.1759    7991.8913   -146.34872 
 6004000    1007.6826   -32264.299    1093.9966   -31170.302    837.90783    1027.9732    7996.9637   -190.06541 
 6008000    1003.0349   -32259.234    1088.9508   -31170.283    824.05074    1091.0536      8001.92   -267.00287 
 6012000    1010.8128   -32267.691     1097.395   -31170.297    912.67947    1168.2617    8007.4746   -255.58218 
 6016000    996.12656   -32251.748    1081.4507   -31170.297    871.69343    1083.9732    8012.8541   -212.27973 
 6020000    994.30867   -32249.746    1079.4771   -31170.269    981.40511    1090.3885     8017.826   -108.98342 
 6024000    996.54607    -32252.22    1081.9062   -31170.314    868.92337    1101.5749    8022.9222   -232.65154 
 6028000    999.51438   -32255.404    1085.1287   -31170.275    923.27615    1189.9321    8028.0663   -266.65598 
 6032000    1000.6093   -32256.594    1086.3174   -31170.277    837.83235    1114.5845    8032.9596   -276.75215 
 6036000    1012.6806     -32269.7    1099.4227   -31170.277    835.38684    1177.2398    8038.2741   -341.85293 
 6040000    1004.8315   -32261.175    1090.9013   -31170.274    939.85819    1146.2358    8044.0422   -206.37765 
 6044000    1014.7275    -32271.89     1101.645   -31170.246    932.06878    1174.2446    8049.5525   -242.17585 
 6048000    1005.3165   -32261.685    1091.4279   -31170.258    901.11766    1133.4979    8054.5875   -232.38019 
 6052000     994.2885   -32249.728    1079.4552   -31170.273    927.43043    1056.3707    8060.6399   -128.94031 
 6056000    998.84689   -32254.676    1084.4041   -31170.272    775.73656      1159.83    8065.7415   -384.09342 
 6060000    999.87973   -32255.801    1085.5254   -31170.275    948.43463    1223.8607    8070.4964   -275.42605 
 6064000    1009.3297   -32266.078    1095.7848   -31170.293    950.22131    1096.6107    8075.9007   -146.38937 
 6068000    995.73753   -32251.327    1081.0284   -31170.298    1052.1522    1122.3604      8081.62   -70.208174 
 6072000    1008.1087   -32264.766    1094.4592   -31170.307    923.97597    1203.4108    8087.1285   -279.43487 
 6076000    1006.2388   -32262.741    1092.4292   -31170.311    907.87879    1191.8352    8092.1871   -283.95642 
 6080000    1001.4845   -32257.553    1087.2676   -31170.285    866.28445    1118.8671     8098.005   -252.58269 
 6084000    999.42871   -32255.282    1085.0357   -31170.246    1008.6766    1150.3426    8102.7517   -141.66603 
 6088000    997.62767   -32253.343    1083.0804   -31170.262     830.4649    1135.8835    8107.3867   -305.41862 
 6092000    999.94039   -32255.883    1085.5912   -31170.292    887.57976    1104.7418    8112.7999   -217.16206 
 6096000     1000.447   -32256.381    1086.1412    -31170.24     877.6406    1077.2562     8118.384    -199.6156 
 6100000    1013.1333   -32270.186    1099.9142   -31170.272    855.01563    1059.6217    8123.4211   -204.60603 
 6104000    1002.1147   -32258.218    1087.9518   -31170.266    866.21575    1102.9237    8128.5627   -236.70799 
 6108000    1002.3695   -32258.501    1088.2284   -31170.273     1025.232    1124.2374    8133.4834   -99.005393 
 6112000     993.0855    -32248.43    1078.1492   -31170.281    967.90346    1179.9677     8139.276    -212.0642 
 6116000    999.12309   -32254.974    1084.7039    -31170.27    915.58457    1072.4974    8143.8158   -156.91283 
 6120000    995.65622   -32251.243    1080.9401   -31170.303    901.91286    1122.8962    8149.2962   -220.98332 
 6124000     996.0176   -32251.596    1081.3324   -31170.263    876.36079    1119.8197    8155.6965    -243.4589 
 6128000    1006.3915   -32262.874     1092.595   -31170.279    915.82081    1077.0076    8160.9378   -161.18676 
 6132000    997.85706   -32253.629    1083.3295     -31170.3    962.39992    1218.8619     8166.114   -256.46196 
 6136000    1002.0912    -32258.23    1087.9263   -31170.303    1009.0046    1086.2519    8171.4806   -77.247246 
 6140000    1008.3543   -32265.029    1094.7258   -31170.303    945.79329    1120.6665    8176.5896   -174.87325 
 6144000    999.32982   -32255.225    1084.9284   -31170.297    944.35637    1010.9725    8182.0688   -66.616105 
 6148000     1000.598   -32256.582    1086.3052   -31170.277    909.16852    1085.0816    8187.6101   -175.91307 
 6152000    1015.8614   -32273.152     1102.876   -31170.276    846.64016    1077.4124    8192.5179   -230.77221 
 6156000    995.82416   -32251.421    1081.1224   -31170.299     963.7485    1067.1141    8197.7323   -103.36562 
 6160000    1001.3561   -32257.402    1087.1283   -31170.274    934.14879    1145.9716    8203.4436   -211.82278 
 6164000    1004.0909   -32260.395    1090.0972   -31170.298      965.459    1172.0218    8208.1652   -206.56277 
 6168000    996.71575   -32252.362    1082.0904   -31170.272    1013.0919    1209.7391     8213.853   -196.64717 
 6172000    1004.1587   -32260.471    1090.1709     -31170.3     1003.062    1139.1607    8219.0856   -136.09873 
 6176000    999.88193   -32255.797    1085.5278    -31170.27     1026.331    1099.7099    8224.5873   -73.378935 
 6180000     998.2947   -32254.113    1083.8046   -31170.308    969.70311    1099.4592    8229.9155    -129.7561 
 6184000    989.87354   -32244.947    1074.6621   -31170.285    875.42465    1141.1407    8235.1078   -265.71605 
 6188000    999.95844   -32255.912    1085.6108   -31170.301    872.70731    1010.0309    8240.1188   -137.32358 
 6192000    1001.5778   -32257.645    1087.3689   -31170.276    989.61385    1081.2711    8244.8789    -91.65725 
 6196000    1011.0828   -32267.959    1097.6881   -31170.271    933.09992     1120.696    8250.1416    -187.5961 
 6200000    1003.2492   -32259.457    1089.1834   -31170.274    924.50165     1184.129    8255.4643   -259.62731 
 6204000    1016.8037   -32274.144    1103.8989   -31170.245     1013.853    1132.0799    8260.5854   -118.22695 
 6208000    993.22572   -32248.573    1078.3014   -31170.272    987.01081    1151.4258    8265.5217     -164.415 
 6212000    1002.9944   -32259.235    1088.9069   -31170.328    951.55553    1113.1172    8270.5874   -161.56168 
 6216000    995.38913   -32250.955    1080.6501   -31170.305    929.49022     1109.435    8276.0308   -179.94479 
 6220000    1003.6879   -32259.947    1089.6597   -31170.288    940.96966    1158.2554    8280.9061   -217.28574 
 6224000    995.09357   -32250.632    1080.3293   -31170.302    863.86981    1037.0024    8286.0371   -173.13261 
 6228000    1001.6792   -32257.791    1087.4789   -31170.313     1009.139    1128.6194    8290.9869   -119.48038 
 6232000     997.1374   -32252.859    1082.5482   -31170.311    941.04387    1215.9536    8296.5461   -274.90973 
 6236000    994.59696   -32250.093    1079.7901   -31170.303    787.99874     1106.567    8302.6489   -318.56825 
 6240000    997.87195   -32253.659    1083.3456   -31170.313    918.88878    1152.1571    8308.1418   -233.26836 
 6244000    989.34151     -32244.4    1074.0845   -31170.316     911.0215    1147.8302    8313.9322   -236.80872 
 6248000     1004.721   -32261.042    1090.7813   -31170.261    925.28133     1102.382    8319.1414   -177.10072 
 6252000    998.46997   -32254.299    1083.9949   -31170.304    948.69559    1152.6316     8324.334   -203.93604 
 6256000    1006.1011    -32262.57    1092.2796   -31170.291    959.22538    1063.2402    8329.1773   -104.01486 
 6260000    994.93572   -32250.484    1080.1579   -31170.326    809.58152    1123.2455    8333.9478   -313.66394 
 6264000    1000.7648   -32256.766    1086.4863    -31170.28    807.98029      1076.27    8339.0984   -268.28974 
 6268000    1004.5194   -32260.875    1090.5625   -31170.312    889.38772    1088.5086    8343.8167   -199.12087 
 6272000    1007.1034   -32263.644    1093.3678   -31170.277    869.14001    1038.2012    8349.8181   -169.06116 
 6276000    1004.1285   -32260.424    1090.1381   -31170.286    989.01325    1108.2256    8354.9976   -119.21239 
 6280000    1006.2122   -32262.685    1092.4002   -31170.284    966.61933    1042.7471    8360.6071   -76.127822 
 6284000    992.97173   -32248.327    1078.0257   -31170.302     896.3129    1106.0466     8366.301   -209.73366 
 6288000    1003.9641   -32260.257    1089.9596   -31170.297    928.17104    1137.9426    8371.9176   -209.77151 
 6292000    1001.4056   -32257.455     1087.182   -31170.273     1030.943    1079.7538    8376.7435   -48.810793 
 6296000    997.44882   -32253.137    1082.8863    -31170.25    812.99544    1071.7317    8381.8052   -258.73629 
 6300000    1004.4977   -32260.836    1090.5389   -31170.297    986.76104    1089.7565    8386.7791   -102.99547 
 6304000    1001.2708   -32257.308    1087.0356   -31170.273    1065.4952     1086.987    8391.7151   -21.491794 
 6308000    1002.5064   -32258.672    1088.3771   -31170.295    929.91093     1133.772    8397.1116   -203.86111 
 6312000    999.23425   -32255.098    1084.8246   -31170.274    856.94935    1072.4041    8402.0769   -215.45474 
 6316000    998.90301   -32254.754     1084.465   -31170.289    902.70305    1124.1374    8407.0077   -221.43434 
 6320000    1006.8605   -32263.394    1093.1041    -31170.29    993.60028    1160.7897    8412.9017   -167.18946 
 6324000    990.36564   -32245.491    1075.1964   -31170.295    935.03249    1080.3961    8418.4988   -145.36357 
 6328000    995.24327   -32250.778    1080.4918   -31170.286    889.72686    1011.1115    8423.3232   -121.38467 
 6332000    993.74993   -32249.158    1078.8705   -31170.288    981.12142    1165.4799    8428.4014    -184.3585 
 6336000     999.9385   -32255.893    1085.5892   -31170.304    845.52418    1054.3098    8433.6785    -208.7856 
 6340000    990.44705     -32245.6    1075.2847   -31170.315    901.58962    1020.7636    8438.9907   -119.17398 
 6344000    1004.3895   -32260.728    1090.4214   -31170.307    810.05422    1081.2032     8444.566   -271.14896 
 6348000    1002.1873   -32258.328    1088.0306   -31170.297    908.10043    1015.7535    8449.8284   -107.65306 
 6352000    1005.2103    -32261.63    1091.3125   -31170.317    885.82441    1018.1496    8455.5245    -132.3252 
 6356000    991.22472   -32246.445     1076.129   -31170.316     897.8642    1141.2579    8461.1252   -243.39372 
 6360000    990.46969   -32245.606    1075.3093   -31170.297     920.7603    1127.0327    8466.5988   -206.27245 
 6364000    998.31858     -32254.1    1083.8305   -31170.269    931.20133    1115.0307    8472.9705   -183.82935 
 6368000    1003.6689    -32259.96    1089.6391   -31170.321    980.31704    1191.3923    8478.1662   -211.07526 
 6372000     989.7338   -32244.816    1074.5104   -31170.306    914.14607    1168.8794    8483.3396    -254.7333 
 6376000    1017.2954   -32274.728    1104.4328   -31170.296    961.28803    1128.0255    8488.3223   -166.73743 
 6380000    996.62467   -32252.296    1081.9915   -31170.304    1008.5057    1035.3663    8493.1337   -26.860617 
 6384000    996.54391   -32252.224    1081.9038    -31170.32    875.79959    1140.2845    8498.4967   -264.48487 
 6388000    987.66901   -32242.602    1072.2687   -31170.334    906.05452    1046.6395     8503.412   -140.58494 
 6392000    994.33884   -32249.832    1079.5099   -31170.322    949.83899    1036.9785    8509.1011   -87.139563 
 6396000    1000.2692    -32256.27    1085.9482   -31170.322      890.284    979.93073    8514.4165   -89.646736 
 6400000    1003.4605   -32259.735    1089.4128   -31170.322    788.97893    1072.6723    8519.3703   -283.69332 
 6404000    995.68551     -32251.3    1080.9719   -31170.328    904.25407    980.31187    8525.9754   -76.057801 
 6408000    1003.5767   -32259.877     1089.539   -31170.338    894.63856    1081.8429    8531.3363   -187.20431 
 6412000    993.09396   -32248.481    1078.1584   -31170.323    840.62069     1064.346    8537.0769   -223.72531 
 6416000    1008.7526   -32265.466    1095.1583   -31170.307    865.12019    1106.7878    8541.9667   -241.66761 
 6420000     1000.612   -32256.656    1086.3204   -31170.336    958.62966    1080.4949    8547.1383    -121.8652 
 6424000    1003.5333   -32259.815    1089.4919   -31170.323    898.67215    1040.9133    8552.4367   -142.24111 
 6428000    998.40167   -32254.235    1083.9207   -31170.315    900.78116    1155.6461    8556.9554   -254.86496 
 6432000    1004.7397   -32261.139    1090.8016   -31170.337    943.11537    1047.7921    8561.9412    -104.6767 
 6436000    1000.7627   -32256.813     1086.484   -31170.329    858.64136    1091.4257    8567.3538   -232.78432 
 6440000    1007.5977   -32264.234    1093.9044   -31170.329    910.80177    1050.8774    8572.6755   -140.07561 
 6444000    1008.8365   -32265.569    1095.2494    -31170.32    1016.0934    1048.0406    8577.6395   -31.947214 
 6448000    992.49957    -32247.84    1077.5131   -31170.327    922.81016    1100.6332    8582.5659   -177.82301 
 6452000    993.79173   -32249.247    1078.9159   -31170.331    910.99919    1127.2686    8587.7854   -216.26938 
 6456000    1005.8817   -32262.411    1092.0414    -31170.37    911.75019    1073.9536    8593.2451   -162.20336 
 6460000    993.97124   -32249.447    1079.1108   -31170.336    944.63086    1086.0965    8598.0075   -141.46562 
 6464000    995.16565   -32250.768    1080.4075    -31170.36    915.08448    1125.5922    8604.0617   -210.50777 
 6468000    987.36101   -32242.281    1071.9344   -31170.347    814.95383    1077.7169    8609.2702   -262.76306 
 6472000    1007.8358   -32264.503     1094.163    -31170.34    896.51465    1104.7951    8614.3776   -208.28047 
 6476000    1000.3306   -32256.354    1086.0149   -31170.339    902.79146    1092.5793    8619.6729   -189.78786 
 6480000    1002.6701   -32258.924    1088.5547    -31170.37    978.30033    1134.4565    8625.4413   -156.15615 
 6484000    997.16508   -32252.915    1082.5782   -31170.337    935.36399    1120.4738    8630.5908   -185.10984 
 6488000    997.10658   -32252.873    1082.5147   -31170.358    966.66545    1099.3841    8635.6389   -132.71867 
 6492000    998.99412   -32254.933    1084.5639    -31170.37    952.62091     1159.391    8640.4798   -206.77009 
 6496000    1000.9334   -32257.036    1086.6693   -31170.366    1018.5396    1128.5918    8645.9648   -110.05219 
 6500000    1004.1647   -32260.552    1090.1774   -31170.375    888.19118    1045.8328    8651.8178    -157.6416 
 6504000    1000.4202   -32256.482    1086.1121    -31170.37     988.1725    1062.1842    8656.8676   -74.011736 
 6508000    995.86028    -32251.52    1081.1617   -31170.358    1024.7259    1176.4708    8662.2103   -151.74494 
 6512000    1001.1114   -32257.217    1086.8626   -31170.354    803.81687    1112.9454    8668.2633   -309.12849 
 6516000    992.68141   -32248.069    1077.7105   -31170.359    831.28282    1151.9207    8673.7472   -320.63784 
 6520000    1002.9903   -32259.264    1088.9023   -31170.361    888.47278    1136.6137    8679.6467   -248.14088 
 6524000    1002.4578   -32258.708    1088.3243   -31170.383    841.20764    1063.8267    8684.4004   -222.61904 
 6528000    1004.0864   -32260.458    1090.0924   -31170.365    905.48242    1114.3093    8690.0136   -208.82691 
 6532000    1002.4327   -32258.654     1088.297   -31170.357      909.152    1140.2674    8695.2782   -231.11541 
 6536000    992.70782   -32248.117    1077.7392   -31170.378    839.84193    1124.4615    8699.9705   -284.61959 
 6540000    1003.0775   -32259.364    1088.9971   -31170.367    886.02855    1113.2695    8705.6283   -227.24099 
 6544000    1002.2278   -32258.458    1088.0746   -31170.384    829.99791    1158.8337    8710.6854   -328.83583 
 6548000    1005.8733   -32262.384    1092.0323   -31170.352    917.68349    1085.0906    8715.2105    -167.4071 
 6552000    1004.8022   -32261.266    1090.8695   -31170.397    861.58645    1096.3395    8720.5404   -234.75305 
 6556000    1007.9003   -32264.612     1094.233   -31170.379    898.44708    1148.2111    8725.4017   -249.76399 
 6560000    1005.0939   -32261.543    1091.1862   -31170.356    823.46314    1062.9966    8730.7492   -239.53344 
 6564000    1009.0331   -32265.808    1095.4628   -31170.345    971.36456     1168.588    8736.5107    -197.2234 
 6568000    1005.9212   -32262.445    1092.0844   -31170.361    954.07068    1096.4419       8741.5   -142.37118 
 6572000    993.83213   -32249.279    1078.9598   -31170.319    855.55561    1127.0702    8746.6536   -271.51456 
 6576000    999.20271   -32255.134    1084.7904   -31170.344    892.95547    1108.8515    8752.7669   -215.89604 
 6580000      1003.39   -32259.697    1089.3363   -31170.361    919.18515    1024.6265    8758.0884   -105.44137 
 6584000      1005.38   -32261.881    1091.4968   -31170.385    935.18244    1129.0886    8763.4806   -193.90612 
 6588000    995.63451   -32251.295    1080.9165   -31170.379     873.9587    1135.5786    8769.0859   -261.61995 
 6592000    1013.5094   -32270.673    1100.3226    -31170.35    942.87646    1045.9251     8774.552    -103.0486 
 6596000    994.37329   -32249.875    1079.5473   -31170.328     855.4274    1124.6842    8780.0311   -269.25684 
 6600000    1007.0892   -32263.692    1093.3523    -31170.34    987.88292    1153.3829    8785.7389   -165.50001 
 6604000    1004.8737   -32261.258    1090.9472   -31170.311    868.61812    1167.1957     8791.326    -298.5776 
 6608000    994.99978   -32250.529    1080.2274   -31170.301    905.54614    1134.9578    8796.5104   -229.41167 
 6612000    1000.6876   -32256.733    1086.4025   -31170.331    883.77857    1084.4468    8801.7621   -200.66822 
 6616000    997.28429   -32253.044    1082.7076   -31170.336    913.68092    1098.5607    8807.2346   -184.87975 
 6620000    995.96238   -32251.598    1081.2725   -31170.326    938.44118     1148.275    8812.7584   -209.83378 
 6624000    1008.0646   -32264.716    1094.4114   -31170.305    991.16146    1168.6391    8818.3965   -177.47764 
 6628000    1004.8859   -32261.301    1090.9604   -31170.341    953.67298    1005.5806    8823.8606   -51.907625 
 6632000    991.96658   -32247.222    1076.9344   -31170.287    931.32441    1116.0793    8829.2723   -184.75484 
 6636000    1012.3969   -32269.402    1099.1147   -31170.287    913.03979    1123.9203    8834.4162    -210.8805 
 6640000    1014.2892    -32271.46    1101.1691    -31170.29     950.5452    1092.9844    8839.6381    -142.4392 
 6644000    1006.3336   -32262.855    1092.5321   -31170.323    946.91226    1056.4831    8844.6291   -109.57084 
 6648000    1011.8281   -32268.789    1098.4972   -31170.292    887.39093    1139.6366     8849.792   -252.24565 
 6652000    1003.1362   -32259.362    1089.0608   -31170.301    986.84984    1169.9805    8855.7706   -183.13065 
 6656000    993.75192   -32249.199    1078.8727   -31170.327    933.74211    1104.8111    8861.5669   -171.06904 
 6660000    1004.4184   -32260.775    1090.4529   -31170.322    957.72829    1149.3469    8866.9192   -191.61866 
 6664000    1013.1418   -32270.228    1099.9234   -31170.305    788.14622      1157.84    8872.1438   -369.69376 
 6668000    1000.7232   -32256.742    1086.4411     -31170.3    891.04162    1085.5016    8877.5344   -194.46002 
 6672000    1001.0706   -32257.108    1086.8182    -31170.29    956.81482    1222.8473    8882.7516   -266.03252 
 6676000    993.39437   -32248.793    1078.4845   -31170.308    877.54177    1108.0309    8888.0888   -230.48915 
 6680000     997.2163     -32252.9    1082.6338   -31170.266    950.61659    1197.4329    8893.3238   -246.81629 
 6684000    1003.7456   -32260.022    1089.7224     -31170.3    826.82526    1118.2067    8899.4713   -291.38143 
 6688000    984.49183   -32239.107    1068.8194   -31170.287    860.32377    1076.9454    8904.7193   -216.62159 
 6692000    998.69808   -32254.548    1084.2425   -31170.305    800.18918    1016.8984    8910.7509   -216.70924 
 6696000    994.67967   -32250.195    1079.8799   -31170.315    943.84439    1077.5097    8916.0189   -133.66533 
 6700000    998.08212   -32253.877    1083.5738   -31170.303    896.15562    1046.6351    8921.0215    -150.4795 
 6704000    1001.3191   -32257.372     1087.088   -31170.284    993.24842    1079.7612    8926.5443   -86.512778 
 6708000    1006.9074    -32263.43     1093.155   -31170.275    919.55608    1127.3086    8931.7176   -207.75256 
 6712000    990.96636   -32246.139    1075.8485    -31170.29    936.23571    1080.1841    8937.4317    -143.9484 
 6716000    999.36069   -32255.265    1084.9619   -31170.303    952.48122    1148.5758    8942.7402   -196.09459 
 6720000    989.86523   -32244.933    1074.6531    -31170.28    922.39784    1042.5189    8948.0994   -120.12102 
 6724000    1001.9278   -32258.023    1087.7489   -31170.274    937.84101    1101.8818    8953.1644    -164.0408 
 6728000    1000.7745    -32256.79    1086.4968   -31170.293    976.27489    1183.4398     8958.274    -207.1649 
 6732000     997.8648   -32253.639    1083.3379   -31170.301    1075.6846    1158.4157     8964.072   -82.731126 
 6736000    1006.7751   -32263.306    1093.0114   -31170.295    972.46829    1113.7157    8969.3517   -141.24737 
 6740000    995.56209   -32251.139    1080.8379   -31170.301    947.36898    1080.0698    8974.2341   -132.70079 
 6744000    991.26657   -32246.467    1076.1745   -31170.293    1038.4802    1164.5986    8979.4207   -126.11841 
 6748000    990.90895    -32246.08    1075.7862   -31170.294    868.11232    1128.4233    8984.5087   -260.31095 
 6752000    1002.4767   -32258.647    1088.3448   -31170.303     898.3238    1112.7717    8990.2204   -214.44789 
 6756000    1006.2968   -32262.777    1092.4922   -31170.285     923.2881    1097.7112    8995.5414   -174.42309 
 6760000    1007.7147   -32264.293    1094.0314   -31170.261    980.41799    1152.4449    9001.2609   -172.02687 
 6764000    985.81438   -32240.575    1070.2553    -31170.32    953.71309    1116.9762    9006.6451    -163.2631 
 6768000    999.05192   -32254.923    1084.6267   -31170.296    957.34227    1196.5737    9011.8469   -239.23144 
 6772000    1005.6481   -32262.087    1091.7878   -31170.299    982.14759    1216.2249     9017.175   -234.07733 
 6776000    998.66338   -32254.512    1084.2048   -31170.307    952.82909    1160.8041    9022.9407   -207.97499 
 6780000    993.82501   -32249.279     1078.952   -31170.327    871.12812    1157.3999    9028.4181   -286.27179 
 6784000    994.57646   -32250.067    1079.7679     -31170.3    952.63937    1160.6671    9033.7108   -208.02777 
 6788000    996.32134   -32251.994    1081.6622   -31170.332    1005.3303    1128.8989    9038.8292   -123.56866 
 6792000    993.73793   -32249.133    1078.8575   -31170.276    940.69998     1166.592    9044.2764   -225.89197 
 6796000    999.41911   -32255.311    1085.0253   -31170.286    909.82651      1215.12    9048.9519   -305.29349 
 6800000    1013.9211   -32271.052    1100.7695   -31170.283    995.79122    1063.6868    9054.2436   -67.895528 
 6804000    1003.3001    -32259.54    1089.2387   -31170.302    924.17655    1136.6343    9059.3482   -212.45775 
 6808000    996.82309   -32252.517    1082.2069    -31170.31    955.65859    1065.7154    9064.4222    -110.0568 
 6812000    1000.7317   -32256.762    1086.4503   -31170.312    869.76035    1106.3407    9070.2069   -236.58037 
 6816000    1001.4175   -32257.494    1087.1949   -31170.299     963.7946    1185.9315    9075.5222   -222.13689 
 6820000     987.4874   -32242.367    1072.0716   -31170.295    940.60031    1099.4553    9081.6144   -158.85499 
 6824000    1010.7222    -32267.61    1097.2965   -31170.314    908.86489    1169.4189    9087.0944   -260.55402 
 6828000    994.15876   -32249.601    1079.3144   -31170.287    871.98404    1137.9206    9092.8541   -265.93656 
 6832000    1001.2838   -32257.354    1087.0497   -31170.304    917.61589     1057.818    9098.2407   -140.20209 
 6836000    1001.3508   -32257.454    1087.1224   -31170.331    867.46937    1159.6035    9102.8233   -292.13408 
 6840000    1000.8001   -32256.837    1086.5246   -31170.312    946.48788    1114.5954    9107.7057   -168.10751 
 6844000     1005.801   -32262.268    1091.9539   -31170.314    971.45796    1168.5402    9113.8514   -197.08224 
 6848000    1009.2314    -32266.01    1095.6781   -31170.332     1012.648    1068.7191    9119.5979   -56.071073 
 6852000    1002.9315   -32259.161    1088.8385   -31170.322    928.87228    1032.7981    9125.4581   -103.92585 
 6856000    996.90746   -32252.621    1082.2985   -31170.323    881.59619    1159.2402    9131.0846   -277.64405 
 6860000    996.85973   -32252.552    1082.2467   -31170.305    907.71062    1125.5105    9136.8724   -217.79989 
 6864000     999.4146   -32255.353    1085.0204   -31170.333     923.4152    1094.7521    9141.6541   -171.33691 
 6868000    1010.7424   -32267.603    1097.3185   -31170.285    929.15917    1134.1008    9146.4325    -204.9416 
 6872000    994.92858   -32250.469    1080.1501   -31170.319    988.00264    1109.2305    9151.6015   -121.22787 
 6876000    1005.8002   -32262.255     1091.953   -31170.302    899.92794     1062.843    9156.7686   -162.91507 
 6880000    1015.0136   -32272.271    1101.9555   -31170.315    924.39405    1209.7506    9162.0605   -285.35653 
 6884000    1009.8415   -32266.679    1096.3404   -31170.339    892.51798    1225.5352    9167.4701   -333.01725 
 6888000    1003.8628   -32260.182    1089.8497   -31170.332    879.42602    1217.1354    9172.7881   -337.70936 
 6892000    1006.4372   -32262.984    1092.6445   -31170.339    923.66748    1102.7253    9177.7103   -179.05779 
 6896000    1008.5437   -32265.289    1094.9315   -31170.358    893.30307    1140.7974    9182.7282   -247.49428 
 6900000    1010.6012   -32267.484    1097.1652   -31170.318    918.46142    1153.9649    9188.1633    -235.5035 
 6904000    1011.9851   -32269.009    1098.6677   -31170.341    916.18154    1123.1018    9193.0269   -206.92027 
 6908000    996.82782   -32252.558    1082.2121   -31170.346    853.49634    1137.1563     9198.191   -283.65995 
 6912000    1000.8382   -32256.902    1086.5659   -31170.336    932.24297    1116.7468    9203.9783   -184.50387 
 6916000    988.19364   -32243.198    1072.8383    -31170.36    946.86511    1111.9234    9209.0319   -165.05829 
 6920000    998.99672   -32254.877    1084.5667    -31170.31    846.18294    1062.8062    9214.3473   -216.62328 
 6924000    995.42304   -32251.028     1080.687   -31170.341    962.78189    1125.6254    9219.0524   -162.84352 
 6928000    993.85174   -32249.318    1078.9811   -31170.337    872.78484    1168.6856      9224.65   -295.90077 
 6932000    1003.4084   -32259.688    1089.3563   -31170.331    993.81036    1076.7766    9229.9299   -82.966205 
 6936000    999.69584   -32255.632    1085.3257   -31170.306    979.15196    1187.2127    9235.6663   -208.06073 
 6940000    1002.0976   -32258.275    1087.9332   -31170.342     896.5579    1146.1644    9240.5551   -249.60651 
 6944000    1003.4397   -32259.695    1089.3903   -31170.305    904.49913     1048.514    9246.0963   -144.01482 
 6948000    1005.0907   -32261.521    1091.1827   -31170.339    1078.0483    1135.7489    9252.2265   -57.700542 
 6952000    991.20943   -32246.455    1076.1124   -31170.342    856.08759    1130.9413    9257.7851   -274.85375 
 6956000    1000.7042   -32256.759    1086.4205   -31170.339    895.03605    1071.9867    9262.8824   -176.95062 
 6960000    986.09043   -32240.909    1070.5549   -31170.354    818.90619    1045.4482    9268.2694   -226.54201 
 6964000    1000.1466    -32256.14    1085.8151   -31170.325    836.87564    1082.0132    9274.0434   -245.13752 
 6968000    992.64218   -32248.026    1077.6679   -31170.358    867.02781    1175.6998    9279.2335   -308.67204 
 6972000    1000.4384   -32256.497    1086.1319   -31170.365     878.4916    1094.9092    9284.3243   -216.41762 
 6976000    1001.2841   -32257.415    1087.0501   -31170.365    871.04278    1131.6384    9289.5691   -260.59561 
 6980000    1011.8148   -32268.819    1098.4827   -31170.337    783.13258    1064.6591    9295.0561    -281.5265 
 6984000    1005.6901   -32262.189    1091.8335   -31170.355    907.63221    1092.7108    9300.4177   -185.07861 
 6988000    992.47876   -32247.824    1077.4905   -31170.334    894.72274     1104.742    9305.6171   -210.01928 
 6992000    994.62151   -32250.169    1079.8168   -31170.352    856.30869      1024.68     9310.164   -168.37136 
 6996000    1003.9352   -32260.276    1089.9282   -31170.347     885.3069    1199.4124    9315.2791   -314.10547 
 7000000    993.90764   -32249.372    1079.0417    -31170.33    1021.8817    1100.0882    9320.7796    -78.20652 
 7004000    1011.4085   -32268.404    1098.0417   -31170.362    917.00749    1030.7927    9325.8909   -113.78525 
 7008000    1002.4487   -32258.672    1088.3144   -31170.357    933.64201    1122.9735    9331.4105   -189.33146 
 7012000    1010.5503   -32267.462    1097.1099   -31170.352    997.46047    1170.7874     9336.488   -173.32695 
 7016000    1004.4941   -32260.883     1090.535   -31170.348    960.59774    1072.7604    9341.3545   -112.16265 
 7020000    993.59359    -32249.07    1078.7008   -31170.369    977.21081    1114.9178    9346.2113   -137.70696 
 7024000    1004.1662   -32260.511     1090.179   -31170.332    910.05113    1123.3185    9352.1251   -213.26737 
 7028000    987.15258   -32242.075    1071.7081   -31170.367    1018.1109    1097.5548    9357.6913     -79.4439 
 7032000    997.98839   -32253.847     1083.472   -31170.375    890.59946    1042.1562    9362.8083   -151.55678 
 7036000    1005.6071   -32262.119    1091.7433   -31170.376    917.89736    1075.9439    9367.9788   -158.04653 
 7040000    1000.1537   -32256.188    1085.8228   -31170.365    876.79867    1038.6188    9373.4013    -161.8201 
 7044000    988.91466   -32243.989    1073.6211   -31170.368    1017.3391    1126.5022    9378.4016    -109.1631 
 7048000    1005.8746   -32262.377    1092.0338   -31170.343    1025.0628     1146.169    9384.0114   -121.10619 
 7052000    987.98133   -32242.963    1072.6078   -31170.355    988.96606    1071.1163    9388.5324   -82.150193 
 7056000    1003.9521   -32260.312    1089.9466   -31170.365    956.80206    1148.5549    9393.6657   -191.75279 
 7060000    991.24547   -32246.487    1076.1515   -31170.336    822.71072    1109.6361    9399.0582   -286.92538 
 7064000    993.02284   -32248.421    1078.0812    -31170.34    997.58095    1019.4303    9404.7705   -21.849364 
 7068000    998.38546   -32254.279    1083.9031   -31170.376    985.26191    1103.4548     9410.579   -118.19288 
 7072000     992.9239   -32248.325    1077.9737   -31170.351    933.07173    1089.6726    9416.5011   -156.60085 
 7076000    1012.3888   -32269.461    1099.1059   -31170.355    897.56148    1112.6266     9421.603   -215.06514 
 7080000    1003.4624   -32259.749    1089.4149   -31170.334    997.50927    1067.9251    9426.7507   -70.415843 
 7084000    999.35147   -32255.324    1084.9519   -31170.372    888.54408    1114.7883    9431.9141   -226.24426 
 7088000     987.0372   -32241.955    1071.5828   -31170.372    812.34985    1128.8047    9436.7047   -316.45481 
 7092000    1009.4939   -32266.342    1095.9631   -31170.379    1036.3424    1124.7644    9442.0292   -88.421988 
 7096000    995.77175    -32251.45    1081.0655   -31170.384    916.97797    1093.7229    9448.0619   -176.74491 
 7100000    989.37326   -32244.507     1074.119   -31170.388    953.86309    1129.7441    9453.8498   -175.88099 
 7104000    1011.3366   -32268.324    1097.9636    -31170.36    936.88127    1090.3512    9459.0405   -153.46993 
 7108000    999.80153   -32255.768    1085.4405   -31170.328     913.3198     1067.027    9464.5673   -153.70725 
 7112000    1004.5397   -32260.935    1090.5845    -31170.35    923.25747    1080.5365    9469.6669   -157.27901 
 7116000    995.50379   -32251.161    1080.7746   -31170.386     817.4145    1110.3435    9474.9998   -292.92897 
 7120000    1001.7104   -32257.879    1087.5128   -31170.366    975.35997    1091.1646    9480.2751   -115.80467 
 7124000     997.6949   -32253.519    1083.1534   -31170.365    834.27269    1100.7548    9485.2382   -266.48209 
 7128000    994.74703   -32250.338     1079.953   -31170.385    816.69238    1057.1812    9490.6399   -240.48882 
 7132000    1001.3109   -32257.443    1087.0792   -31170.364    835.95681    1017.5015    9495.5528   -181.54474 
 7136000    1009.9979   -32266.872    1096.5102   -31170.362    957.77962    982.00086    9500.4484   -24.221246 
 7140000    1000.2625   -32256.331     1085.941   -31170.391    933.09439    1080.3332    9505.5491   -147.23881 
 7144000    1009.6739   -32266.536    1096.1585   -31170.377    819.76336    1123.8065    9510.9816   -304.04314 
 7148000    998.38976   -32254.246    1083.9078   -31170.338    857.63929    1101.6884    9516.5479   -244.04913 
 7152000    1004.1569   -32260.553    1090.1689   -31170.384     792.8709     1076.141    9521.9239   -283.27006 
 7156000    998.18479   -32254.072    1083.6853   -31170.386    953.79143    1139.9901    9527.6238   -186.19863 
 7160000    1004.1836   -32260.565    1090.1979   -31170.367    859.67594     1020.555    9532.7098   -160.87906 
 7164000    1003.4044   -32259.721    1089.3519   -31170.369    841.89267    1165.7186     9538.143   -323.82589 
 7168000    999.21734   -32255.212    1084.8063   -31170.405    1121.3063     1075.761    9543.3954    45.545339 
 7172000    1006.8737     -32263.5    1093.1184   -31170.382    918.84036    1173.3108    9548.4208   -254.47047 
 7176000    989.01729   -32244.129    1073.7325   -31170.397    927.62223    1081.7157    9553.5364   -154.09348 
 7180000    1003.3771   -32259.687    1089.3223   -31170.365    921.39869     1108.703    9558.4906   -187.30432 
 7184000    1002.3171   -32258.541    1088.1715   -31170.369    840.15094    1138.4883     9564.243    -298.3374 
 7188000    1000.7263   -32256.822    1086.4445   -31170.377    914.76724    1110.1764    9569.9292   -195.40917 
 7192000    1000.8941   -32256.979    1086.6266   -31170.352    859.33227    1084.9782    9574.6243    -225.6459 
 7196000    1003.9925    -32260.35    1089.9905   -31170.359    866.23161    1044.5079    9579.8094   -178.27629 
 7200000    1011.1552   -32268.096    1097.7666   -31170.329    963.31199    1045.3202    9584.7422   -82.008256 
 7204000     1003.507   -32259.813    1089.4633    -31170.35    854.71721     1122.775    9590.0548   -268.05777 
 7208000    994.42636   -32249.952    1079.6049   -31170.347    935.19413    1102.1864    9595.2122   -166.99225 
 7212000    995.68517    -32251.32    1080.9715   -31170.348    999.68996    1066.5193    9600.9242   -66.829325 
 7216000    999.04629   -32254.951    1084.6206    -31170.33    862.33174    1042.9025    9606.0301   -180.57072 
 7220000    995.11285   -32250.657    1080.3502   -31170.307    909.48201    1091.6367    9611.1193   -182.15467 
 7224000    1011.5398   -32268.504    1098.1842    -31170.32    898.94068     1037.425    9616.4608   -138.48434 
 7228000     1006.671    -32263.24    1092.8983   -31170.342    906.85776    1029.1343    9621.6036   -122.27652 
 7232000    995.61837   -32251.214     1080.899   -31170.315    990.31777    1078.7974    9627.2931   -88.479594 
 7236000    994.87218   -32250.413    1080.0889   -31170.324    933.98723    1102.4162    9632.3157   -168.42894 
 7240000    1006.3197   -32262.851     1092.517   -31170.334    922.24107     1108.652    9637.2364   -186.41095 
 7244000    981.58544   -32236.011    1065.6641   -31170.347    820.23117     1106.136    9642.6486   -285.90483 
 7248000    990.32132   -32245.481    1075.1482   -31170.333    992.02682    1119.6157    9648.1363   -127.58884 
 7252000     1002.134   -32258.285    1087.9728   -31170.313    931.41883    1093.9667    9653.2877    -162.5479 
 7256000    997.56104    -32253.38    1083.0081   -31170.372    856.23991    1073.4264    9658.7091   -217.18648 
 7260000    1007.4287   -32264.081     1093.721    -31170.36    941.21586    1237.9966    9663.6506   -296.78077 
 7264000    1012.5535   -32269.627    1099.2848   -31170.343    1045.8344    1195.9349    9669.8093   -150.10045 
 7268000    994.24626   -32249.736    1079.4094   -31170.327    903.27174    1107.1231    9675.2579   -203.85136 
 7272000    997.11838   -32252.861    1082.5275   -31170.333    906.17572    1030.6446    9680.7444   -124.46891 
 7276000    997.42785   -32253.231    1082.8635   -31170.368    859.62046     1084.114    9685.4857   -224.49355 
 7280000    1004.7251   -32261.135    1090.7858   -31170.349    955.16917    1134.7388    9691.1391   -179.56959 
 7284000    1010.3335    -32267.23    1096.8746   -31170.355    936.61641    1052.6414    9695.8567   -116.02499 
 7288000    1007.4533   -32264.082    1093.7476   -31170.334    995.68584    1131.8091    9701.1555   -136.12329 
 7292000    1011.7771   -32268.815    1098.4419   -31170.373    846.34545    1154.6347    9706.3823   -308.28928 
 7296000    1001.4725   -32257.606    1087.2546   -31170.352    901.20903    1064.4864    9711.9009   -163.27733 
 7300000     1008.046   -32264.739    1094.3911   -31170.348    963.85755    1027.2512    9716.8021   -63.393677 
 7304000    995.17319   -32250.758    1080.4157   -31170.343    1023.5013    1113.9322     9722.145   -90.430882 
 7308000    1007.2083   -32263.857    1093.4817   -31170.375    986.75471    1081.2277    9727.0796   -94.473028 
 7312000    993.04992   -32248.472    1078.1106   -31170.362    941.01823    1046.8108    9732.8195   -105.79252 
 7316000    1000.2646   -32256.282    1085.9432   -31170.339    1053.1571    1101.2769     9737.971   -48.119811 
 7320000    993.59708   -32249.072    1078.7046   -31170.367    955.59401    1109.3931    9742.9252   -153.79905 
 7324000    1000.8406   -32256.924    1086.5685   -31170.356     1048.751    1127.8031    9748.2551   -79.052104 
 7328000    998.46511   -32254.326    1083.9896   -31170.336    823.20542    1099.7147    9753.4791    -276.5093 
 7332000    994.03422   -32249.531    1079.1792   -31170.352    939.18869    1069.6512    9758.3149   -130.46253 
 7336000    1000.8846   -32256.989    1086.6163   -31170.373    956.51439     1109.175    9763.8283   -152.66065 
 7340000    1006.6581    -32263.25    1092.8843   -31170.366    951.46306    1089.3746     9769.128   -137.91151 
 7344000    1013.6673   -32270.882     1100.494   -31170.388    956.91379    1062.0936    9774.8178   -105.17985 
 7348000    1014.4104   -32271.663    1101.3007   -31170.362    889.03351    1070.4038    9779.7713   -181.37031 
 7352000        999.4   -32255.393    1085.0046   -31170.388    927.40913    1089.2276    9785.5629    -161.8185 
 7356000    996.45744   -32252.157      1081.81   -31170.347    959.20338    1119.9385    9790.7108   -160.73516 
 7360000    1000.1431   -32256.186    1085.8114   -31170.375     941.7586    1091.6231    9796.1908   -149.86454 
 7364000    990.78072    -32246.02     1075.647   -31170.373    981.54837     1117.825      9801.32   -136.27662 
 7368000    999.68456   -32255.686    1085.3135   -31170.373    849.27257    1117.4093    9806.3468   -268.13677 
 7372000     999.9468   -32255.969    1085.5982   -31170.371    904.71219    1109.0846    9811.6302   -204.37243 
 7376000    987.72661   -32242.701    1072.3313    -31170.37    903.88528    1010.6757    9816.7496    -106.7904 
 7380000    1002.0451   -32258.212    1087.8763   -31170.336    851.85208    1117.4242    9822.1524   -265.57216 
 7384000    996.21712   -32251.908     1081.549   -31170.359    873.17057    1086.0741    9827.1073   -212.90358 
 7388000    998.26465   -32254.115     1083.772   -31170.343    900.11122     1126.313    9831.8174   -226.20181 
 7392000    1004.7275   -32261.134    1090.7884   -31170.346    887.01234    1158.5906    9837.1285   -271.57823 
 7396000    1005.6278   -32262.093    1091.7658   -31170.327    903.63552    1054.0894    9842.1397   -150.45384 
 7400000    998.97307   -32254.859    1084.5411   -31170.318    910.45887    1105.3313     9847.248   -194.87247 
 7404000    1001.4732   -32257.583    1087.2554   -31170.328    974.13287     1092.244    9853.4154   -118.11117 
 7408000    1003.6722   -32259.923    1089.6427    -31170.28    942.71395    1180.7275    9858.8605   -238.01351 
 7412000    1000.9807   -32257.025    1086.7207   -31170.305    940.14754    1138.6366    9864.3456   -198.48904 
 7416000    996.86016   -32252.581    1082.2472   -31170.334    913.46494    1157.3976     9869.797   -243.93267 
 7420000    1003.7844   -32260.092    1089.7645   -31170.327    1007.8627    1083.2469    9875.1591   -75.384237 
 7424000    1006.3455   -32262.851     1092.545   -31170.306    877.35622    1221.7834    9880.4237   -344.42718 
 7428000    998.78987    -32254.69    1084.3422   -31170.348    862.29881    1143.0019    9885.6487   -280.70306 
 7432000    1012.9476   -32270.053    1099.7126    -31170.34    980.60774    1105.6816    9891.5477   -125.07382 
 7436000    1003.6646   -32259.988    1089.6344   -31170.353    906.44213    1076.6638    9896.4412   -170.22164 
 7440000    995.32645   -32250.913    1080.5821   -31170.331    833.11142    1118.0568    9901.6574   -284.94536 
 7444000     1003.289   -32259.577    1089.2267    -31170.35    853.81086    1138.2786    9907.4212   -284.46774 
 7448000    996.80354   -32252.515    1082.1857    -31170.33    846.01604    1173.6184    9912.9215   -327.60239 
 7452000    1004.2613   -32260.616    1090.2822   -31170.334     940.2749    1070.9382     9917.644   -130.66334 
 7456000    989.49057   -32244.557    1074.2463   -31170.311    889.28385    1185.7419     9922.718   -296.45803 
 7460000    1002.2218   -32258.423    1088.0681   -31170.355    847.14655    1168.8363    9927.4963   -321.68972 
 7464000    1006.2371    -32262.75    1092.4273   -31170.323    891.66184    1074.8947    9933.0915   -183.23287 
 7468000    999.75324   -32255.729    1085.3881    -31170.34    991.24851    1156.8748    9938.1098   -165.62629 
 7472000    1009.3949   -32266.205    1095.8556    -31170.35    838.40672    1118.5319    9943.6377   -280.12517 
 7476000    993.05909   -32248.466    1078.1205   -31170.345    859.51905     1019.637    9949.2223   -160.11799 
 7480000    1009.9511   -32266.778    1096.4594   -31170.318     880.5292    1038.5796    9954.7011    -158.0504 
 7484000    1014.8632   -32272.117    1101.7923   -31170.324    852.16214    1164.0099    9959.7851   -311.84775 
 7488000    1001.1438   -32257.237    1086.8978    -31170.34    865.14775    1141.6341    9964.7139   -276.48634 
 7492000    1010.2381   -32267.114     1096.771   -31170.343    937.24517    1167.7855    9969.6687   -230.54032 
 7496000     1004.384   -32260.764    1090.4154   -31170.349    897.68343    1095.7013    9974.6907    -198.0179 
 7500000    991.85636   -32247.181    1076.8148   -31170.366    987.89432    1068.6564    9979.4395   -80.762111 
 7504000    995.67084   -32251.322     1080.956   -31170.366    935.04219    1137.1417    9985.0653   -202.09948 
 7508000    991.69369   -32246.993    1076.6382   -31170.355    800.88739    1265.9115    9990.3209    -465.0241 
 7512000    1012.0498   -32269.081    1098.7379   -31170.343    890.97125    1139.9982    9995.0419   -249.02697 
 7516000    1008.4544   -32265.205    1094.8345    -31170.37    983.47088    1053.1859    9999.5851   -69.715066 
 7520000    1001.5932   -32257.776    1087.3856    -31170.39    971.15122     1013.907    10005.362   -42.755764 
 7524000    1001.7011   -32257.859    1087.5027   -31170.356    974.27757    1088.3393    10010.886   -114.06171 
 7528000    1001.0888   -32257.252     1086.838   -31170.414    983.39445    1071.9772    10016.554   -88.582801 
 7532000    1003.7077    -32260.05    1089.6812   -31170.368    868.03895    1133.9844    10021.533   -265.94548 
 7536000    1004.7403   -32261.175    1090.8023   -31170.372     902.8036     1168.369    10027.176   -265.56545 
 7540000    1002.1845   -32258.388    1088.0276    -31170.36    957.75435    1098.2118    10031.926    -140.4575 
 7544000    998.39068   -32254.264    1083.9088   -31170.355     845.7015     1129.081    10037.214   -283.37946 
 7548000     995.3322    -32250.94    1080.5883   -31170.352    828.15158    1131.1295     10042.52   -302.97793 
 7552000    1004.7134   -32261.113    1090.7731    -31170.34    831.94226    1123.3914    10048.098   -291.44918 
 7556000    996.67998   -32252.414    1082.0516   -31170.362    873.04304    1037.0983    10053.978    -164.0553 
 7560000    1000.3269   -32256.355    1086.0109   -31170.344    895.70556    1077.4465    10058.922   -181.74094 
 7564000    1008.7241   -32265.459    1095.1273   -31170.332    962.16284    1164.8608    10064.292     -202.698 
 7568000    992.69894   -32248.061    1077.7295   -31170.332    839.57616     1017.317    10069.837   -177.74084 
 7572000    997.59424   -32253.412    1083.0441   -31170.368    904.23884    1097.2527    10075.275   -193.01387 
 7576000    982.66239   -32237.182    1066.8333   -31170.349     866.9477    1050.0597    10081.109     -183.112 
 7580000    998.56864   -32254.467     1084.102   -31170.365    856.09179    1112.8961    10086.679   -256.80431 
 7584000    1002.2704   -32258.455    1088.1208   -31170.334    988.32123      1109.35    10091.758   -121.02879 
 7588000    995.93125   -32251.581    1081.2387   -31170.342    938.32499    1023.5282    10096.601   -85.203175 
 7592000    997.17711   -32252.928    1082.5913   -31170.336    871.45909     1105.075    10102.101   -233.61589 
 7596000    995.01235   -32250.576    1080.2411   -31170.335    876.92657    1060.9436    10107.567   -184.01704 
 7600000    1010.2273   -32267.096    1096.7593   -31170.337    941.06294     1049.068    10112.695   -108.00509 
 7604000    1004.4628   -32260.841     1090.501    -31170.34    970.51839    1094.7133    10118.272   -124.19494 
 7608000    1003.1584   -32259.421    1089.0849   -31170.336    963.12969    1172.1783    10123.768   -209.04858 
 7612000    1002.4618   -32258.649    1088.3286   -31170.321    1012.6907    1143.0963    10129.132    -130.4056 
 7616000    1004.0465   -32260.382    1090.0491   -31170.333    1018.1944    1105.1859     10134.83   -86.991474 
 7620000    995.49328   -32251.093    1080.7632    -31170.33     929.6968    1087.6798    10140.222   -157.98302 
 7624000    1000.6179   -32256.696    1086.3268   -31170.369    884.97805    1120.7132    10145.509   -235.73519 
 7628000    995.95034   -32251.607    1081.2594   -31170.347    915.71919    1048.8791    10150.995   -133.15986 
 7632000    995.18773   -32250.764    1080.4315   -31170.332    952.89921    1129.3057    10156.053   -176.40646 
 7636000    1005.9235   -32262.406    1092.0869   -31170.319    930.00111    1083.5416     10161.08   -153.54048 
 7640000    994.87528   -32250.451    1080.0923   -31170.358    940.48349    1031.2264    10166.641   -90.742893 
 7644000    994.32835   -32249.887    1079.4985   -31170.388    907.56344    1154.1888     10171.64   -246.62537 
 7648000     1003.593   -32259.928    1089.5567   -31170.371    1007.8698    1143.1607    10176.404   -135.29089 
 7652000    1000.1855   -32256.208    1085.8573    -31170.35     910.6972    1125.4975    10181.798    -214.8003 
 7656000    997.67144   -32253.473    1083.1279   -31170.345    867.57158    1022.5655    10186.855   -154.99396 
 7660000    997.71234   -32253.531    1083.1723   -31170.359    931.63724    1122.0001    10192.292    -190.3629 
 7664000    999.26792   -32255.207    1084.8612   -31170.346    862.80475    1098.1224    10197.379   -235.31766 
 7668000    1002.8724   -32259.124    1088.7744    -31170.35    982.92025    1090.2684    10202.518   -107.34819 
 7672000    998.71501   -32254.621    1084.2609    -31170.36    896.92853    1086.3435     10207.19   -189.41499 
 7676000    1006.9054   -32263.496    1093.1529   -31170.343    989.19965    1082.6492    10212.585   -93.449594 
 7680000     1001.001   -32257.055    1086.7427   -31170.313    926.50091    1221.3723    10217.342   -294.87139 
 7684000    999.58952   -32255.526    1085.2103   -31170.315    1034.2893    1231.3738    10222.825   -197.08454 
 7688000    995.97181   -32251.652    1081.2827    -31170.37       969.63    1070.0638    10228.195   -100.43384 
 7692000    1002.6956   -32258.929    1088.5824   -31170.346    925.33841    1160.4271    10233.534   -235.08873 
 7696000    995.55864   -32251.184    1080.8342    -31170.35    960.06568    1157.8725    10238.793   -197.80681 
 7700000    996.13465   -32251.833    1081.4595   -31170.374    949.33287    1141.2288    10244.793   -191.89598 
 7704000    1004.8657   -32261.311    1090.9384   -31170.373    959.62318    1090.4267    10250.509   -130.80348 
 7708000    998.37965   -32254.269    1083.8968   -31170.373    970.71795    1105.4962    10255.393   -134.77821 
 7712000      1000.54   -32256.621    1086.2422   -31170.378    923.65113    1134.4995    10260.982   -210.84833 
 7716000    997.25126   -32253.014    1082.6718   -31170.342    774.99699    1087.7408    10266.351    -312.7438 
 7720000    1000.1361   -32256.134    1085.8038   -31170.331    923.15216    1149.7669    10271.383   -226.61471 
 7724000    990.38702   -32245.582    1075.2196   -31170.363     858.3057    1062.7591    10276.285   -204.45339 
 7728000    1002.6397   -32258.828    1088.5217   -31170.307    806.26397    1145.1584    10282.008   -338.89441 
 7732000     987.6533   -32242.583    1072.2517   -31170.331    874.65341    1063.1787    10287.261   -188.52532 
 7736000    1007.8878   -32264.552    1094.2194   -31170.332    932.64825    1163.9929    10292.561   -231.34463 
 7740000    1009.9327    -32266.77    1096.4395   -31170.331    1047.6828    1100.9017    10297.391   -53.218895 
 7744000    996.73905   -32252.434    1082.1157   -31170.318    985.60192    1027.6199    10302.855   -42.017958 
 7748000    1007.9329   -32264.552    1094.2684   -31170.283    1002.9629    1142.4067    10308.472   -139.44373 
 7752000    1002.5051   -32258.683    1088.3757   -31170.307    911.27561    1107.6543     10313.82   -196.37872 
 7756000    1003.8384   -32260.117    1089.8232   -31170.293     973.6801    1172.3269    10319.194   -198.64681 
 7760000     988.3805   -32243.339    1073.0412   -31170.298    874.44988    1100.1957    10324.113   -225.74581 
 7764000    1002.6929   -32258.887    1088.5795   -31170.308    858.30951    1122.3077    10329.658    -263.9982 
 7768000    995.61365   -32251.208    1080.8939   -31170.314    925.03742    1101.7493     10335.19   -176.71184 
 7772000      1001.43   -32257.522    1087.2085   -31170.313    886.86985    1026.8779    10341.068   -140.00809 
 7776000    1002.7556   -32258.977    1088.6476    -31170.33     863.4079    1073.6197    10346.552   -210.21176 
 7780000    992.68669   -32248.028    1077.7162   -31170.312    956.59276    1046.2232    10352.276   -89.630451 
 7784000     988.2223   -32243.184    1072.8694   -31170.315    946.41143    1084.9501    10357.526   -138.53867 
 7788000    1010.0544   -32266.874    1096.5716   -31170.302    930.34958    1142.5905    10362.563   -212.24093 
 7792000     1012.269   -32269.295    1098.9758   -31170.319    987.84916    1165.4024    10367.709   -177.55328 
 7796000    1007.0731   -32263.649    1093.3349   -31170.314    897.56477    1100.9672    10372.703   -203.40241 
 7800000     999.6939    -32255.65    1085.3236   -31170.326    884.02708    1205.2714    10378.266   -321.24437 
 7804000    1003.3537   -32259.601     1089.297   -31170.304    847.44223    1104.2965    10383.203    -256.8543 
 7808000     998.0013   -32253.826    1083.4861    -31170.34    857.83278    1149.4226    10388.629   -291.58982 
 7812000    1002.2159   -32258.382    1088.0617   -31170.321    965.06873     1070.946    10393.531   -105.87728 
 7816000    995.11724   -32250.689     1080.355   -31170.334    968.51471    1021.7377    10398.687   -53.222995 
 7820000     998.4239   -32254.273    1083.9449   -31170.328    943.79848    1100.9658    10404.443   -157.16735 
 7824000    1003.4383   -32259.704    1089.3888   -31170.316    968.83459    1185.0084    10410.228   -216.17381 
 7828000    998.47991     -32254.3    1084.0057   -31170.294    897.72794    1145.3793     10415.08   -247.65136 
 7832000    1003.6501   -32259.934    1089.6188   -31170.315    958.61764    1096.5026    10420.121   -137.88492 
 7836000     1003.592   -32259.853    1089.5557   -31170.297    845.08128    1119.8773    10426.062   -274.79607 
 7840000    1000.9875   -32257.039     1086.728    -31170.31    901.18857    1148.4951    10431.203   -247.30651 
 7844000    1001.2343   -32257.308     1086.996   -31170.312    857.03355    1131.9665    10437.254   -274.93292 
 7848000    1006.6476   -32263.189     1092.873   -31170.316     966.3044    1052.9521     10442.32   -86.647743 
 7852000    992.29045   -32247.599     1077.286   -31170.313    988.21584    1120.5658      10447.5   -132.34993 
 7856000     997.0795   -32252.815    1082.4853    -31170.33    912.43379    1211.9272    10452.798   -299.49343 
 7860000    991.66917   -32246.943    1076.6115   -31170.332    797.11648    1135.8847    10458.099   -338.76821 
 7864000    1007.9105   -32264.555     1094.244   -31170.311    942.14043    1108.2456    10463.371   -166.10515 
 7868000    991.52756   -32246.782    1076.4578   -31170.324    886.33619    1121.5155    10468.466   -235.17935 
 7872000    1009.0479   -32265.796    1095.4789   -31170.317     899.9979    1145.0531      10474.2   -245.05524 
 7876000    995.70067   -32251.293    1080.9884   -31170.305    946.29474    1074.3819    10479.337   -128.08716 
 7880000    1001.7638   -32257.892    1087.5709   -31170.321    923.97369    1097.6903    10484.297    -173.7166 
 7884000    998.10742   -32253.913    1083.6013   -31170.312    1039.9383    1094.6751    10489.108   -54.736746 
 7888000    1008.7796   -32265.496    1095.1875   -31170.308    936.36916    1125.6105    10494.982   -189.24135 
 7892000    1003.2876   -32259.523    1089.2252   -31170.298    898.55528    1102.3466    10500.485   -203.79135 
 7896000    1006.9748   -32263.519    1093.2282   -31170.291    884.57783    1058.2846    10505.774   -173.70674 
 7900000    1005.9506   -32262.401    1092.1163   -31170.285     964.0565    1088.1426    10510.826    -124.0861 
 7904000    997.06321   -32252.797    1082.4676   -31170.329    906.97203    1119.4307    10515.885   -212.45865 
 7908000    1000.8275   -32256.877    1086.5543   -31170.323    965.18646    1047.1894    10521.007   -82.002954 
 7912000     997.7068   -32253.529    1083.1663   -31170.362    884.74687    1094.2895    10525.929   -209.54259 
 7916000     1004.474   -32260.829    1090.5132   -31170.316    969.58623     1059.432    10530.534   -89.845763 
 7920000    980.90422   -32235.295    1064.9245   -31170.371    965.22912    1055.3005    10535.685   -90.071373 
 7924000    999.90139   -32255.867    1085.5489   -31170.318    879.55579    1040.5805    10541.074   -161.02467 
 7928000    990.42964   -32245.571    1075.2658   -31170.305    912.39085    1086.9676    10546.513   -174.57677 
 7932000    994.72191   -32250.185    1079.9258   -31170.259     1015.233    1135.4971    10551.415   -120.26408 
 7936000    999.06556   -32254.954    1084.6415   -31170.313    937.04503    1068.1126    10556.874   -131.06753 
 7940000    1002.5602   -32258.737    1088.4354   -31170.302    846.14034    1139.1456    10562.394   -293.00526 
 7944000    1002.6579   -32258.863    1088.5415   -31170.321    793.13797    1134.5864    10566.805   -341.44841 
 7948000    1007.0023   -32263.565    1093.2581   -31170.307    964.79244    1142.0686    10571.998   -177.27612 
 7952000     995.8018   -32251.422    1081.0982   -31170.324    915.16769    1148.5956    10577.283   -233.42788 
 7956000    999.23109   -32255.103    1084.8212   -31170.282    904.80484    1180.2144    10582.625   -275.40958 
 7960000    999.59548   -32255.524    1085.2168   -31170.308    990.31313    1134.4983    10588.041    -144.1852 
 7964000    997.64586   -32253.411    1083.1002   -31170.311     884.8705    1064.1399    10593.019   -179.26939 
 7968000    992.44451   -32247.786    1077.4533   -31170.332    907.35027     1028.088     10598.25   -120.73774 
 7972000    994.41568     -32249.9    1079.5933   -31170.307    1002.7225     1120.736    10603.396   -118.01347 
 7976000    1007.3039   -32263.854    1093.5855   -31170.269     976.3312    1154.8455    10608.614   -178.51428 
 7980000    1003.6945   -32259.984    1089.6669   -31170.317    985.35989    1135.2868    10614.539   -149.92691 
 7984000    1002.3679   -32258.519    1088.2267   -31170.292    815.62401    1130.2589    10619.838   -314.63491 
 7988000    1002.1394   -32258.264    1087.9786   -31170.285    899.24412    1183.1433    10624.968    -283.8992 
 7992000    1002.9112   -32259.136    1088.8166    -31170.32    847.73417    1094.3168     10630.55   -246.58258 
 7996000    1010.9244   -32267.825    1097.5161   -31170.309     897.0604     1171.101    10636.073   -274.04061 
 8000000    993.90854   -32249.337    1079.0427   -31170.294    1049.7327    1156.7216    10640.754   -106.98884 
Loop time of 128298 on 16 procs for 8000000 steps with 8400 atoms

Performance: 5.387 ns/day, 4.455 hours/ns, 62.355 timesteps/s
58.5% CPU use with 16 MPI tasks x 1 OpenMP threads

MPI task timing breakdown:
Section |  min time  |  avg time  |  max time  |%varavg| %total
---------------------------------------------------------------
Pair    | 65607      | 68336      | 71214      | 615.5 | 53.26
Kspace  | 46628      | 50102      | 53444      | 861.4 | 39.05
Neigh   | 807.01     | 830.98     | 862.27     |  53.9 |  0.65
Comm    | 6523.2     | 7270.8     | 8424.9     | 654.9 |  5.67
Output  | 1.3432     | 1.3489     | 1.3672     |   0.6 |  0.00
Modify  | 207.54     | 215.96     | 230.18     |  44.4 |  0.17
Other   |            | 1541       |            |       |  1.20

Nlocal:    525 ave 546 max 505 min
Histogram: 4 0 2 0 1 2 3 0 1 3
Nghost:    7225.31 ave 7459 max 7145 min
Histogram: 7 3 0 2 2 0 0 1 0 1
Neighs:    203526 ave 212829 max 195280 min
Histogram: 3 3 0 0 1 4 1 0 2 2

Total # of neighbors = 3256420
Ave neighs/atom = 387.669
Neighbor list builds = 202986
Dangerous builds = 0

# ********************  thermal conductivity calculation processing  ********************

fix	swap	all	thermal/conductivity	400	x	40

thermo_style	custom	step	temp	pe	ke	etotal	f_swap	v_tdiff

restart		500000	RNEMD*.restart

run             4000000
PPPM initialization ...
  using 12-bit tables for long-range coulomb (../kspace.cpp:332)
  G vector (1/distance) = 0.190725
  grid = 100 15 6
  stencil order = 5
  estimated absolute RMS force accuracy = 0.000570746
  estimated relative force accuracy = 3.96361e-05
  using double precision KISS FFT
  3d grid and FFT values/proc = 3192 624
Per MPI rank memory allocation (min/avg/max) = 7.478 | 7.493 | 7.506 Mbytes
Step Temp PotEng KinEng TotEng f_swap v_tdiff 
 8000000    993.90854   -32249.337    1079.0427   -31170.294            0   -106.98884 
 8004000    993.77231   -32249.175    1078.8948    -31170.28    5.3552329   -218.01513 
 8008000    1003.1545   -32259.382    1089.0806   -31170.302    10.621547   -152.87575 
 8012000    1003.8131   -32260.099    1089.7956   -31170.304    15.517036   -286.94521 
 8016000    999.40726   -32255.325    1085.0125   -31170.313    20.800906   -120.18448 
 8020000    997.92807   -32253.687    1083.4066   -31170.281    26.624363   -193.68254 
 8024000    1001.2269   -32257.298     1086.988    -31170.31    32.697706   -198.24937 
 8028000    994.29025   -32249.767    1079.4571    -31170.31    38.136749   -220.13485 
 8032000     1000.162    -32256.14    1085.8318   -31170.308    43.296335   -358.44836 
 8036000    995.28058   -32250.843    1080.5323    -31170.31     49.09458   -276.68463 
 8040000    1003.3927    -32259.67    1089.3393    -31170.33    54.226832   -126.77218 
 8044000    1012.1408   -32269.126    1098.8367   -31170.289    60.343267   -143.02439 
 8048000    998.36431   -32254.182    1083.8802   -31170.302    65.216113   -210.78967 
 8052000    1003.4922   -32259.704    1089.4473   -31170.256    70.375597   -236.78921 
 8056000    1003.2685    -32259.49    1089.2044   -31170.286    75.692554   -147.84598 
 8060000    1004.8742   -32261.251    1090.9477   -31170.303    81.004858   -228.00333 
 8064000    990.11795   -32245.206    1074.9274   -31170.279    86.691661   -211.85529 
 8068000    1016.7072    -32274.08    1103.7942   -31170.286    92.396888   -53.007112 
 8072000    1003.3342   -32259.537    1089.2757   -31170.261    97.416907   -237.35278 
 8076000    995.66444   -32251.246     1080.949   -31170.297     102.8855   -98.144007 
 8080000    999.73932   -32255.667    1085.3729   -31170.294    107.94553   -98.698178 
 8084000    999.79566   -32255.708    1085.4341   -31170.274    113.30308   -227.28197 
 8088000    1001.6301   -32257.725    1087.4257   -31170.299    118.29336   -150.63481 
 8092000    1004.4062   -32260.731    1090.4395   -31170.292    123.83133    -144.1704 
 8096000    1005.9717   -32262.437    1092.1392   -31170.298    128.97286   -110.91218 
 8100000    998.48233   -32254.316    1084.0083   -31170.307    134.97073   -314.47544 
 8104000     1008.595   -32265.281    1094.9872   -31170.294    139.82797   -80.593547 
 8108000      1008.38   -32265.027    1094.7538   -31170.273    146.12285    -295.9586 
 8112000    1003.6909   -32259.973     1089.663    -31170.31    151.31841    -56.50735 
 8116000    997.42827    -32253.16    1082.8639   -31170.296     156.5081   -126.85377 
 8120000    1003.5424   -32259.831    1089.5018    -31170.33    161.56399   -200.43772 
 8124000    1004.2751   -32260.609    1090.2972   -31170.311    167.30076   -121.07707 
 8128000    982.03177   -32236.485    1066.1486   -31170.336    172.34415   -152.36981 
 8132000    1001.8919   -32258.023    1087.7099   -31170.313    177.79305   -156.83986 
 8136000    999.12001   -32254.994    1084.7006   -31170.294     182.5715   -126.63509 
 8140000    1001.2404   -32257.291    1087.0026   -31170.288    188.23564   -268.09518 
 8144000    990.64893   -32245.791    1075.5039   -31170.287    193.97514   -152.85801 
 8148000    1006.9412   -32263.496    1093.1917   -31170.305    200.05455   -275.01282 
 8152000    994.78671   -32250.317    1079.9961   -31170.321    205.92752   -255.98649 
 8156000    986.95536   -32241.789     1071.494   -31170.295    211.11883   -115.01325 
 8160000    992.25581   -32247.548    1077.2484     -31170.3    216.41717   -234.90474 
 8164000    997.35366   -32253.119    1082.7829   -31170.336    221.73058   -140.15876 
 8168000    997.92143   -32253.681    1083.3993   -31170.282    227.22582   -283.86977 
 8172000    1007.5184   -32264.123    1093.8184   -31170.305     232.2695   -85.238403 
 8176000    995.92661   -32251.519    1081.2337   -31170.285    237.02213   -67.938605 
 8180000    991.21318   -32246.441    1076.1165   -31170.324    242.44612   -208.03393 
 8184000     1011.434   -32268.377    1098.0693   -31170.308    247.83787   -184.97754 
 8188000    999.03685   -32254.907    1084.6103   -31170.297     252.9296   -297.97496 
 8192000    1013.6638    -32270.79    1100.4902     -31170.3    258.15084   -292.19524 
 8196000    994.97316   -32250.525    1080.1985   -31170.326    263.39224   -97.070616 
 8200000    993.21637   -32248.602    1078.2913   -31170.311    268.62302    -251.4354 
 8204000    997.65584   -32253.432     1083.111   -31170.321    274.02627    -158.4451 
 8208000    1000.8251   -32256.866    1086.5518   -31170.314    279.88543   -185.58947 
 8212000    997.74807   -32253.546    1083.2111   -31170.335    285.11044   -296.91907 
 8216000    986.49971   -32241.343    1070.9993   -31170.344    290.55158    -166.9462 
 8220000    1002.3064   -32258.487    1088.1599   -31170.328    295.41074    8.7632284 
 8224000    999.90801   -32255.886    1085.5561    -31170.33    300.00097   -86.302198 
 8228000     1011.024   -32267.905    1097.6242   -31170.281    305.32876   -229.30569 
 8232000    1003.9162   -32260.219    1089.9076   -31170.311    310.46683   -273.74443 
 8236000    992.33192   -32247.624    1077.3311   -31170.293     316.3758   -167.42686 
 8240000     994.1606   -32249.631    1079.3164   -31170.315    321.30419   -189.90056 
 8244000    998.97331   -32254.855    1084.5413   -31170.314    326.93958   -49.036165 
 8248000     993.0993   -32248.473    1078.1642   -31170.309    332.54017    -283.2232 
 8252000    997.61045   -32253.368    1083.0617   -31170.306    339.14718   -201.83062 
 8256000    1005.5898   -32262.045    1091.7245   -31170.321    345.18689   -142.11817 
 8260000    1007.3475   -32263.924    1093.6328   -31170.291    350.34429   -125.39948 
 8264000    1010.6759   -32267.587    1097.2463   -31170.341    355.68782   -282.55409 
 8268000    1001.2827   -32257.317    1087.0486   -31170.269    360.98349   -47.974302 
 8272000    999.42876   -32255.314    1085.0358   -31170.279    366.58201   -177.21289 
 8276000    1009.7878   -32266.545    1096.2821   -31170.263    372.18484   -338.46058 
 8280000     997.8691   -32253.621    1083.3425   -31170.279    377.35739    -251.2924 
 8284000    1005.3257    -32261.73    1091.4378   -31170.292    382.37214   -168.10761 
 8288000    991.18188   -32246.344    1076.0825   -31170.261    387.22294   -163.10724 
 8292000    1006.4148   -32262.869    1092.6202   -31170.249    392.35556   -201.08041 
 8296000    996.84929   -32252.483    1082.2354   -31170.247    397.85918   -210.83376 
 8300000    999.46448    -32255.32    1085.0746   -31170.245    403.22107   -131.63063 
 8304000    995.37775   -32250.905    1080.6378   -31170.267    408.14603     -205.306 
 8308000    1004.1817   -32260.452    1090.1958   -31170.256    412.73541   -120.03682 
 8312000    1005.9883   -32262.412    1092.1572   -31170.255    418.23272   -195.75676 
 8316000    1007.5185    -32264.05    1093.8185   -31170.232    423.63783   -154.15307 
 8320000    1012.2142   -32269.134    1098.9164   -31170.218     428.4295   -64.615709 
 8324000    999.79801   -32255.694    1085.4367   -31170.257    433.61898   -181.82521 
 8328000    1011.9858   -32268.923    1098.6684   -31170.254    438.65176   -194.95856 
 8332000    997.75508    -32253.49    1083.2187   -31170.271    443.67458   -280.80456 
 8336000    1003.7327   -32259.967    1089.7083   -31170.258    448.78324   -186.78221 
 8340000    1012.3013   -32269.258    1099.0109   -31170.247    453.89122   -140.55001 
 8344000    1001.3057   -32257.308    1087.0735   -31170.235    460.08336    -132.3182 
 8348000    1008.0277   -32264.623    1094.3713   -31170.251    465.38597   -300.48426 
 8352000    1001.3898   -32257.383    1087.1648   -31170.218     470.4413   -166.94785 
 8356000    993.09869   -32248.441    1078.1635   -31170.277    476.26038   -285.07501 
 8360000    1004.6058   -32260.882    1090.6563   -31170.226    481.08929   -268.78791 
 8364000    995.21464   -32250.715    1080.4607   -31170.254    486.75113   -255.72144 
 8368000    993.39501   -32248.729    1078.4852   -31170.244    491.57301    -313.5316 
 8372000    1002.8662    -32258.99    1088.7677   -31170.222    496.75467   -186.48502 
 8376000    987.72151    -32242.59    1072.3257   -31170.264    502.18924   -198.18098 
 8380000    1003.8007    -32260.01    1089.7822   -31170.228     507.2552   -155.55887 
 8384000    1006.2992   -32262.766    1092.4947   -31170.272    512.49698   -203.46562 
 8388000    1007.0716   -32263.602    1093.3333   -31170.268    517.72947   -193.32151 
 8392000    1007.3561   -32263.906    1093.6421   -31170.264    522.75479   -330.65279 
 8396000    991.51358   -32246.691    1076.4426   -31170.248     527.6585   -314.94802 
 8400000    1001.3123   -32257.301    1087.0806    -31170.22    532.56685   -237.51238 
 8404000     1004.337   -32260.634    1090.3645   -31170.269     537.3302   -260.07899 
 8408000    1001.6176   -32257.665    1087.4121   -31170.253    542.49144   -127.63912 
 8412000    999.34754    -32255.19    1084.9476   -31170.242    547.91586   -270.28745 
 8416000    994.24923   -32249.661    1079.4126   -31170.249    553.31339    -187.3703 
 8420000    1002.1054   -32258.213    1087.9417   -31170.272     559.2342   -265.95518 
 8424000    992.62219   -32247.895    1077.6462   -31170.249    564.89722   -94.259735 
 8428000    999.77405   -32255.646    1085.4107   -31170.235     570.2334   -196.22106 
 8432000    1008.3346   -32264.938    1094.7044   -31170.234    575.57209   -257.34814 
 8436000     990.8738   -32246.024     1075.748   -31170.276    581.28426   -89.805271 
 8440000    1001.5207    -32257.54    1087.3069   -31170.233    586.39309   -288.26944 
 8444000    1003.4478    -32259.65    1089.3991   -31170.251    591.85416    -243.3578 
 8448000    995.17816   -32250.666    1080.4211   -31170.245    597.49347   -187.27411 
 8452000    1003.7668   -32259.987    1089.7454   -31170.242    602.57607   -253.28738 
 8456000    1006.9422   -32263.462    1093.1928   -31170.269    607.66628   -42.935652 
 8460000     993.6517   -32248.998    1078.7639   -31170.234    613.14538    -131.1099 
 8464000     1012.243   -32269.199    1098.9476   -31170.251     618.6456   -264.46238 
 8468000    1007.5041   -32264.074    1093.8029   -31170.271    624.33868   -304.11735 
 8472000    997.43432   -32253.122    1082.8705   -31170.252     630.0692   -97.706717 
 8476000    1011.0099    -32267.81    1097.6089   -31170.201    635.48075   -230.04802 
 8480000    1001.1429   -32257.115    1086.8967   -31170.219    640.77751   -150.90665 
 8484000    999.82025   -32255.721    1085.4608    -31170.26    646.80703   -320.28943 
 8488000    1000.6872   -32256.652     1086.402    -31170.25    653.40401   -54.081827 
 8492000    1008.0099   -32264.604    1094.3519   -31170.252    658.70181   -120.57236 
 8496000    999.45692   -32255.326    1085.0664   -31170.259    664.17969   -171.83521 
 8500000    987.51773   -32242.345    1072.1045    -31170.24    669.71199   -183.02395 
 8504000    1008.2238   -32264.839    1094.5842   -31170.254    674.98248   -278.28123 
 8508000    1002.4455   -32258.575    1088.3109   -31170.264    680.02775   -222.02804 
 8512000    1004.2399   -32260.505     1090.259   -31170.246    685.46419    -145.6312 
 8516000    994.71194    -32250.17    1079.9149   -31170.255    690.72419   -233.69823 
 8520000    992.89386   -32248.216    1077.9411   -31170.275    695.71107   -81.184484 
 8524000    1004.4225   -32260.711    1090.4573   -31170.254    700.98257    -154.5124 
 8528000    1002.3876   -32258.545    1088.2481   -31170.297    706.51803   -172.23857 
 8532000     1006.449   -32262.906    1092.6573   -31170.249    712.05355   -163.29576 
 8536000    1005.8447   -32262.273    1092.0013   -31170.271    717.89664   -196.07724 
 8540000    988.13379   -32243.046    1072.7733   -31170.273    723.78468   -184.02542 
 8544000    993.91481   -32249.325    1079.0495   -31170.276    729.22892   -212.36023 
 8548000    991.34199   -32246.511    1076.2563   -31170.255     735.1603   -150.71104 
 8552000     998.7489   -32254.565    1084.2977   -31170.267    740.19886    -202.4461 
 8556000     1007.523   -32264.097    1093.8234   -31170.274    745.55365   -88.973305 
 8560000    1005.7292   -32262.127     1091.876   -31170.251    751.65576   -204.61076 
 8564000    995.18335   -32250.641    1080.4267   -31170.214    756.61155   -134.64518 
 8568000     999.2145   -32255.031    1084.8032   -31170.228    761.76956   -183.13915 
 8572000    997.77932   -32253.487    1083.2451   -31170.241    767.06552   -197.18332 
 8576000    999.37378   -32255.225    1084.9761   -31170.249    772.06688   -244.41865 
 8580000    1001.1898    -32257.23    1086.9477   -31170.283    777.60475   -206.45116 
 8584000    1001.5393   -32257.574    1087.3271   -31170.247    782.94011    -130.5388 
 8588000    998.29128   -32254.076    1083.8009   -31170.275    788.51616   -332.55695 
 8592000    995.43859   -32250.944    1080.7038    -31170.24    794.23702   -254.60666 
 8596000    1008.4265   -32265.052    1094.8043   -31170.248    799.97021   -234.62707 
 8600000     1006.231   -32262.657    1092.4207   -31170.236    805.25256   -153.10994 
 8604000    995.82095   -32251.379    1081.1189    -31170.26    810.44578   -226.89067 
 8608000    1004.7757   -32261.077    1090.8407   -31170.236    814.59789   -167.35825 
 8612000    1009.0902   -32265.766    1095.5248   -31170.241    820.31047   -226.35136 
 8616000    1001.8105   -32257.858    1087.6215   -31170.237    824.94116   -301.49532 
 8620000    1005.1937   -32261.523    1091.2945   -31170.228    830.19934   -254.96404 
 8624000    996.90958   -32252.536    1082.3008   -31170.235    835.09817    -215.9906 
 8628000    1009.0039   -32265.649    1095.4311   -31170.217    840.60517   -228.63373 
 8632000    1003.6893   -32259.931    1089.6613    -31170.27    845.69167   -189.68047 
 8636000    1000.4834    -32256.42    1086.1807   -31170.239     851.6682   -257.53452 
 8640000    1006.8649   -32263.355    1093.1089   -31170.247    856.73679   -222.79802 
 8644000    992.06781   -32247.281    1077.0443   -31170.237    861.64684   -166.18002 
 8648000    996.48056   -32252.091    1081.8351   -31170.256    866.72762   -328.52084 
 8652000    1005.3111    -32261.69    1091.4219   -31170.268    872.00478   -175.46534 
 8656000    1007.2958   -32263.864    1093.5767   -31170.287    877.23808   -119.72776 
 8660000    992.17315   -32247.441    1077.1587   -31170.282    882.60514   -122.68768 
 8664000    995.83573   -32251.392     1081.135   -31170.257    887.87619   -287.29009 
 8668000    997.52707   -32253.239    1082.9712   -31170.268    893.17062   -144.69403 
 8672000    1005.6835   -32262.083    1091.8263   -31170.256    898.61163   -352.72003 
 8676000    1010.2874   -32267.075    1096.8245   -31170.251    903.90243   -147.91764 
 8680000    999.41518   -32255.295     1085.021   -31170.274    909.12194   -221.75491 
 8684000    997.28768   -32253.005    1082.7113   -31170.294    913.98445   -294.74296 
 8688000    1008.4572   -32265.076    1094.8375   -31170.239    918.96356   -206.76303 
 8692000    998.70473   -32254.538    1084.2497   -31170.288    924.06846   -157.65512 
 8696000     995.5154   -32251.041    1080.7872   -31170.254    929.33846   -268.47818 
 8700000    1004.1201   -32260.364     1090.129   -31170.235    934.28176   -207.21024 
 8704000    998.23178   -32254.006    1083.7363    -31170.27    939.27404   -362.73614 
 8708000    1005.9529   -32262.349    1092.1187    -31170.23    944.67774   -238.42793 
 8712000    996.87847    -32252.51     1082.267   -31170.243     949.9781   -261.02058 
 8716000     1006.809   -32263.282    1093.0482   -31170.233    955.56033   -129.15125 
 8720000    983.42243   -32237.883    1067.6584   -31170.224    961.15489   -206.07888 
 8724000    992.26351   -32247.507    1077.2568    -31170.25    966.91922   -87.076861 
 8728000    1000.8075    -32256.76    1086.5326   -31170.228    972.35901   -204.59278 
 8732000    995.20887   -32250.706    1080.4544   -31170.251    977.74602   -195.02231 
 8736000     993.2852   -32248.594     1078.366   -31170.228    983.46533   -140.28196 
 8740000    993.06104   -32248.393    1078.1226    -31170.27    988.94882   -240.72448 
 8744000    1004.4316   -32260.728    1090.4672    -31170.26    994.34518   -203.45702 
 8748000    1005.9961   -32262.412    1092.1656   -31170.247    999.68452   -145.93839 
 8752000     993.1316    -32248.43    1078.1992   -31170.231    1005.4389   -280.98104 
 8756000    1001.9544   -32258.062    1087.7778   -31170.285    1010.7488   -202.37784 
 8760000    1004.3203   -32260.617    1090.3464   -31170.271    1015.2805   -175.92396 
 8764000     1001.978   -32258.045    1087.8034   -31170.241    1020.1996   -181.57025 
 8768000    992.66844   -32247.946    1077.6964    -31170.25    1025.9637    -162.9518 
 8772000    999.76252   -32255.662    1085.3981   -31170.264    1031.2889   -183.13685 
 8776000    1006.5384    -32263.01    1092.7544   -31170.256    1036.6559   -133.94544 
 8780000    1005.0839   -32261.471    1091.1753   -31170.296    1041.5878   -154.03777 
 8784000    1009.7828   -32266.528    1096.2768   -31170.251    1046.7048    -185.3034 
 8788000    1000.4331   -32256.363    1086.1261   -31170.237    1052.3394   -176.75223 
 8792000    997.30018    -32252.97    1082.7249   -31170.245    1057.6151   -156.59279 
 8796000     1003.396   -32259.597    1089.3428   -31170.254    1063.4527   -239.40417 
 8800000    1005.2236   -32261.595     1091.327   -31170.268     1068.665   -129.31194 
 8804000     1000.944   -32256.911    1086.6808    -31170.23    1074.3594   -163.14184 
 8808000    1000.1178   -32256.011    1085.7838   -31170.227    1079.5004   -327.48117 
 8812000    1004.8721   -32261.173    1090.9454   -31170.227     1084.903   -209.28475 
 8816000    1003.2244   -32259.373    1089.1566   -31170.216    1090.6583   -149.48651 
 8820000    998.73683   -32254.537    1084.2846   -31170.252    1096.1876   -293.26934 
 8824000    996.42924   -32252.027    1081.7793   -31170.248    1101.4463   -221.48524 
 8828000    996.38982   -32251.965    1081.7365   -31170.229    1106.8844   -243.95951 
 8832000     997.1923   -32252.846    1082.6078   -31170.239    1111.9429   -283.69278 
 8836000    1008.2346   -32264.823    1094.5959   -31170.227    1117.1702   -280.85101 
 8840000    994.17443   -32249.561    1079.3314   -31170.229    1122.5154   -120.83881 
 8844000    999.85907   -32255.722     1085.503   -31170.219     1128.161    -149.6652 
 8848000    995.47138   -32250.942    1080.7394   -31170.203      1133.27   -172.19268 
 8852000    1000.9865   -32256.936    1086.7269   -31170.209    1138.8889   -200.93841 
 8856000    997.31135   -32252.977     1082.737    -31170.24    1143.9691   -120.97035 
 8860000    999.59403   -32255.415    1085.2152   -31170.199    1148.9921   -307.85626 
 8864000    996.56659   -32252.155    1081.9285   -31170.226    1153.9238   -282.95457 
 8868000    999.81728   -32255.661    1085.4576   -31170.204    1159.1152   -234.47622 
 8872000    995.49326   -32250.965    1080.7632   -31170.202    1163.8147   -125.81956 
 8876000    993.44903   -32248.758    1078.5439   -31170.215    1169.4561   -298.02523 
 8880000    999.75624   -32255.594    1085.3913   -31170.203      1174.86    -118.0571 
 8884000    996.16799   -32251.752    1081.4957   -31170.256    1180.4485   -276.83843 
 8888000    1005.3634   -32261.707    1091.4787   -31170.228    1185.5706   -150.84467 
 8892000    997.85729    -32253.54    1083.3297    -31170.21    1190.9096   -219.46499 
 8896000    994.65178   -32250.061    1079.8496   -31170.212     1196.116   -119.43839 
 8900000    997.56923   -32253.242     1083.017   -31170.225    1201.4545   -120.81384 
 8904000    1017.9383   -32275.331    1105.1308     -31170.2     1206.811   -179.26699 
 8908000    1002.3363    -32258.43    1088.1924   -31170.238    1211.8625   -247.28467 
 8912000    994.89866   -32250.333    1080.1177   -31170.215    1216.7296   -213.94803 
 8916000    1002.8762   -32259.001    1088.7785   -31170.222    1221.4919   -224.60026 
 8920000    997.64442   -32253.318    1083.0986   -31170.219    1226.4158    -221.1663 
 8924000    998.56068   -32254.324    1084.0934   -31170.231    1231.7623   -109.73339 
 8928000    999.96919   -32255.858    1085.6225   -31170.236    1236.7963   -156.55446 
 8932000    1001.3423   -32257.335    1087.1133   -31170.222    1241.7764   -157.42694 
 8936000    1005.8466   -32262.229    1092.0033   -31170.226    1247.4781   -94.008205 
 8940000    996.72681   -32252.343    1082.1024    -31170.24    1253.6315   -158.72979 
 8944000    1000.4976   -32256.424    1086.1962   -31170.228    1258.8161   -196.00842 
 8948000    1006.7142   -32263.162    1092.9453   -31170.216     1264.071   -101.57091 
 8952000    1009.4206   -32266.099    1095.8835   -31170.215    1269.7953   -311.62847 
 8956000    1003.5984   -32259.803    1089.5626    -31170.24     1276.037   -111.50639 
 8960000    993.42418   -32248.731    1078.5169   -31170.215    1280.6388   -209.07578 
 8964000    1003.9852   -32260.198    1089.9825   -31170.215    1286.5761   -129.77133 
 8968000    993.90881   -32249.261     1079.043   -31170.218    1292.3196   -80.862302 
 8972000    1002.0548   -32258.122    1087.8868   -31170.235    1297.9645   -141.51894 
 8976000    991.59032   -32246.728    1076.5259   -31170.202    1303.6979   -159.72959 
 8980000    999.15973   -32254.966    1084.7437   -31170.222     1309.264   -262.09721 
 8984000    1005.5396   -32261.889    1091.6701   -31170.219    1314.1599   -207.83188 
 8988000    1005.9724   -32262.371    1092.1399   -31170.231    1318.7592    -160.6401 
 8992000    993.24577   -32248.562    1078.3232   -31170.239    1324.4854   -141.28898 
 8996000     1005.891   -32262.269    1092.0516   -31170.217     1330.026   -231.20859 
 9000000     1000.634   -32256.586    1086.3442   -31170.242    1335.3083   -145.28414 
 9004000    1007.7792   -32264.334    1094.1015   -31170.233    1340.2166   -244.18494 
 9008000    1006.4068   -32262.836    1092.6116   -31170.224    1345.5708   -180.22267 
 9012000     1005.671   -32262.067    1091.8128   -31170.254     1350.676   -221.76315 
 9016000    988.74303   -32243.652    1073.4348   -31170.217    1356.0142   -99.157808 
 9020000    1003.1819   -32259.334    1089.1104   -31170.224    1361.7797   -219.96615 
 9024000    995.98447   -32251.502    1081.2965   -31170.206    1367.0837   -210.49888 
 9028000    1000.2221   -32256.105    1085.8971   -31170.208    1372.4609   -152.29915 
 9032000    1007.2718   -32263.764    1093.5507   -31170.213    1377.1481   -284.94773 
 9036000    1001.3379   -32257.325    1087.1084   -31170.217    1382.5601   -157.40257 
 9040000    1010.3137   -32267.087    1096.8531   -31170.234    1387.5905   -179.72218 
 9044000    993.46426   -32248.751    1078.5604   -31170.191    1392.8919   -222.26699 
 9048000     1002.425   -32258.505    1088.2887   -31170.216    1398.2483   -236.51043 
 9052000    1008.7451   -32265.353    1095.1502   -31170.203    1403.3703    -227.3279 
 9056000     1000.739   -32256.625    1086.4582   -31170.167    1409.0902   -123.70445 
 9060000    1004.5432   -32260.812    1090.5883   -31170.224    1413.7057   -168.48899 
 9064000     1006.698   -32263.143    1092.9277   -31170.216    1418.9858   -141.69915 
 9068000    998.42284   -32254.138    1083.9437   -31170.194    1424.0263   -84.712541 
 9072000    994.92984   -32250.378    1080.1515   -31170.226    1429.6158   -172.42741 
 9076000    1005.8866   -32262.251    1092.0468   -31170.205     1435.051  -0.25126896 
 9080000    999.35299   -32255.145    1084.9535   -31170.192    1440.4255   -133.80647 
 9084000    996.05203   -32251.572    1081.3698   -31170.203    1445.2483   -210.82012 
 9088000     992.5699   -32247.827    1077.5894   -31170.237    1450.5482   -46.644936 
 9092000    1002.3401   -32258.386    1088.1965   -31170.189    1455.8992   -196.20399 
 9096000    985.53089   -32240.166    1069.9475   -31170.218    1460.8539   -204.26702 
 9100000    1000.8317   -32256.791    1086.5589   -31170.232    1465.5852   -145.93596 
 9104000    1000.6267    -32256.53    1086.3363   -31170.194    1470.4514   -300.61113 
 9108000    1002.9346   -32259.078     1088.842   -31170.236     1475.075   -157.32009 
 9112000     1000.047   -32255.925    1085.7069   -31170.218    1481.1447   -359.40379 
 9116000     1000.061   -32255.927    1085.7222   -31170.204    1485.8992   -275.86393 
 9120000    999.41887   -32255.249     1085.025   -31170.224    1491.4387   -157.65796 
 9124000    995.22307   -32250.701    1080.4699   -31170.231    1497.0518   -85.369675 
 9128000    1008.5543   -32265.168     1094.943   -31170.226    1502.4317   -160.81984 
 9132000    1002.3631   -32258.423    1088.2215   -31170.201    1507.4972   -160.47564 
 9136000    1004.0353   -32260.274    1090.0369   -31170.238    1512.9135   -83.718406 
 9140000    999.96964   -32255.833     1085.623    -31170.21    1518.0448   -277.27279 
 9144000    1004.1933   -32260.403    1090.2085   -31170.195    1523.5473   -241.89672 
 9148000    992.89703   -32248.161    1077.9446   -31170.216    1529.5439   -140.31916 
 9152000    997.03825   -32252.651    1082.4405   -31170.211    1534.5848   -180.28224 
 9156000    1003.3263   -32259.468    1089.2672     -31170.2    1540.0425   -298.51924 
 9160000    1010.9226   -32267.727    1097.5141   -31170.213     1545.235   -103.45508 
 9164000    1005.7437   -32262.072    1091.8917    -31170.18    1550.8124   -220.49891 
 9168000     1003.233   -32259.378    1089.1659   -31170.212    1555.9983   -273.12841 
 9172000    994.39644   -32249.805    1079.5724   -31170.232     1561.117   -239.37479 
 9176000    998.34023   -32254.075     1083.854   -31170.221    1566.3196   -240.66027 
 9180000     1006.345   -32262.733    1092.5445   -31170.189    1571.2728    -131.4474 
 9184000    1009.6903   -32266.361    1096.1763   -31170.185     1575.811   -372.76352 
 9188000    1000.8376   -32256.778    1086.5653   -31170.213    1580.9816   -273.51823 
 9192000    1009.4036   -32266.067     1095.865   -31170.202    1586.1804   -288.09058 
 9196000      1000.75   -32256.671    1086.4702   -31170.201     1591.618   -180.49025 
 9200000    1014.3512   -32271.435    1101.2364   -31170.198    1596.9105   -171.82699 
 9204000    996.25976   -32251.816    1081.5953   -31170.221    1602.5206   -248.43503 
 9208000    1002.4435   -32258.522    1088.3087   -31170.213    1607.9446   -364.56702 
 9212000    999.88287   -32255.731    1085.5288   -31170.202     1613.603   -152.40822 
 9216000     999.4632   -32255.251    1085.0732   -31170.178    1618.7994   -206.24824 
 9220000    994.07653   -32249.453    1079.2251   -31170.228     1623.779   -169.77475 
 9224000    1002.2539   -32258.295    1088.1029   -31170.192    1629.3445   -127.93013 
 9228000    1005.6168   -32261.966    1091.7539   -31170.212    1634.8513   -197.90215 
 9232000    1004.0128   -32260.251    1090.0125   -31170.238    1639.6768   -163.31116 
 9236000    990.96426   -32246.066    1075.8463    -31170.22    1644.8594   -147.05839 
 9240000    992.80908   -32248.031    1077.8491   -31170.182    1650.1869   -252.30967 
 9244000    1005.6385   -32261.981    1091.7774   -31170.204    1655.6118   -269.71766 
 9248000     1004.542   -32260.821     1090.587   -31170.234    1661.1737   -297.52903 
 9252000    1004.5379   -32260.784    1090.5826   -31170.202    1666.6233   -248.76777 
 9256000    1000.7946   -32256.746    1086.5187   -31170.228    1672.3152   -89.867493 
 9260000    996.23602   -32251.789    1081.5696    -31170.22    1677.3185   -212.51587 
 9264000     1001.935   -32257.962    1087.7568   -31170.205     1682.535   -35.726692 
 9268000    1000.1225   -32255.956     1085.789   -31170.167    1687.7467   -148.06469 
 9272000    1000.2413   -32256.136    1085.9179   -31170.219     1692.394   -208.72867 
 9276000    1005.4406   -32261.734    1091.5626   -31170.171    1697.7862    -214.2629 
 9280000    1003.3235   -32259.502    1089.2641   -31170.238    1702.7361   -86.461981 
 9284000    993.84567   -32249.174    1078.9745     -31170.2    1707.8458    -189.3876 
 9288000    989.19152   -32244.115    1073.9217   -31170.193    1713.4689   -184.99325 
 9292000    1002.8355   -32258.921    1088.7344   -31170.186    1718.8954   -176.54788 
 9296000    1004.1317   -32260.336    1090.1416   -31170.194    1724.0806    -138.8588 
 9300000    997.48138   -32253.122    1082.9216     -31170.2    1729.0801   -208.82249 
 9304000     995.6802    -32251.16    1080.9661   -31170.194    1735.0202   -226.68818 
 9308000    1006.2921   -32262.674     1092.487   -31170.187    1740.3037   -259.48815 
 9312000    999.00457   -32254.768    1084.5753   -31170.193    1745.3278   -254.07012 
 9316000     1002.629   -32258.712    1088.5101   -31170.202    1750.1033   -53.754063 
 9320000    991.59846   -32246.724    1076.5348   -31170.189    1755.4012   -151.15609 
 9324000    992.57676   -32247.785    1077.5969   -31170.188    1760.5062   -200.18599 
 9328000    990.48848   -32245.515    1075.3297   -31170.185    1765.7471   -50.279156 
 9332000    993.07435   -32248.311    1078.1371   -31170.174    1771.1063    -187.8601 
 9336000    995.71421     -32251.2    1081.0031   -31170.197    1776.2149   -223.55046 
 9340000    993.31033   -32248.584    1078.3933    -31170.19    1781.7462   -141.74386 
 9344000    997.02111   -32252.626    1082.4219   -31170.204    1787.4366    -161.0363 
 9348000    1002.1073    -32258.15    1087.9437   -31170.207    1792.5648   -238.03852 
 9352000    997.01171   -32252.585    1082.4117   -31170.173    1798.2412   -160.43337 
 9356000    1012.9349   -32269.885    1099.6988   -31170.186    1803.6764   -202.59121 
 9360000    993.20516   -32248.477    1078.2791   -31170.198     1808.975   -231.02154 
 9364000    1001.0027   -32256.944    1086.7446     -31170.2    1814.1582   -281.08591 
 9368000    999.20636   -32254.974    1084.7943    -31170.18    1819.5193   -127.58332 
 9372000    1001.2597   -32257.224    1087.0235     -31170.2    1825.1682   -165.00041 
 9376000    1007.6328   -32264.126    1093.9425   -31170.184    1830.2465   -174.28342 
 9380000    995.21596   -32250.636    1080.4621   -31170.174    1835.5245    -146.4924 
 9384000    1010.0643   -32266.759    1096.5823   -31170.177    1841.4719   -291.17645 
 9388000    994.12462   -32249.462    1079.2773   -31170.184    1846.7101   -124.65725 
 9392000     1000.857   -32256.764    1086.5863   -31170.177    1852.0803   -242.65719 
 9396000    995.96101   -32251.442     1081.271   -31170.171    1857.2261   -174.20033 
 9400000    1004.1939   -32260.362    1090.2091   -31170.153    1862.3112   -200.66652 
 9404000    1004.0882   -32260.267    1090.0943   -31170.173    1867.1059   -248.77343 
 9408000    997.05849   -32252.638    1082.4625   -31170.176    1871.8552   -216.15208 
 9412000    1007.6727    -32264.14    1093.9859   -31170.155    1876.7801   -79.327362 
 9416000    994.75939    -32250.13    1079.9665   -31170.164    1882.4378   -145.96801 
 9420000     994.6657   -32250.031    1079.8647   -31170.167    1888.2053   -47.783593 
 9424000     989.2925   -32244.182    1074.0313   -31170.151     1893.311   -256.62866 
 9428000     1006.447   -32262.816    1092.6551   -31170.161    1899.2198   -252.36023 
 9432000     994.0835   -32249.402    1079.2327    -31170.17    1904.1302   -126.87475 
 9436000    993.17044   -32248.384    1078.2414   -31170.142    1909.8344    -109.3131 
 9440000    999.52332   -32255.289    1085.1384   -31170.151    1915.1021    -416.4975 
 9444000    1000.1498   -32255.959    1085.8186   -31170.141    1920.5904   -80.454759 
 9448000    1000.6693   -32256.567    1086.3826   -31170.184     1925.839   -187.31531 
 9452000    997.36746   -32252.968    1082.7979    -31170.17    1931.0851   -121.31346 
 9456000    1000.5828   -32256.435    1086.2886   -31170.146    1936.2683    -113.1398 
 9460000    995.53038   -32250.956    1080.8035   -31170.152    1941.2622    -234.8464 
 9464000    1008.0666   -32264.602    1094.4136   -31170.188    1947.0275   -241.46197 
 9468000    993.49081    -32248.73    1078.5892    -31170.14    1951.8031   -254.16906 
 9472000    991.73862   -32246.873    1076.6869   -31170.186    1957.6468   -243.54641 
 9476000    999.75989   -32255.555    1085.3953    -31170.16     1962.676   -218.17508 
 9480000     1011.301   -32268.076     1097.925   -31170.151     1968.614   -10.511637 
 9484000    994.59848   -32249.963    1079.7918   -31170.172    1974.2064   -112.94347 
 9488000    988.96746   -32243.858    1073.6784    -31170.18    1979.7952   -155.25233 
 9492000    991.47438   -32246.538    1076.4001   -31170.138     1985.594   -166.79589 
 9496000    1008.9005   -32265.466    1095.3188   -31170.147    1991.4291   -224.76443 
 9500000    1001.8492     -32257.8    1087.6636   -31170.137    1996.5091   -169.60735 
 9504000     999.3818   -32255.145    1084.9848    -31170.16    2002.3508    -151.5035 
 9508000    1004.8221   -32261.038    1090.8911   -31170.147    2007.3842   -262.20245 
 9512000    1003.8858   -32260.046    1089.8745   -31170.172    2012.3871   -162.28485 
 9516000    998.63416   -32254.352    1084.1731   -31170.179    2018.0155   -296.39868 
 9520000    1011.8663   -32268.702    1098.5387   -31170.163    2023.2934   -185.52043 
 9524000    1010.4485   -32267.169    1096.9994   -31170.169    2028.5479   -200.06918 
 9528000     1005.589   -32261.902    1091.7236   -31170.179    2033.9232    -271.0244 
 9532000    987.26835   -32241.974    1071.8338    -31170.14    2039.3404   -272.13426 
 9536000    998.59589   -32254.262    1084.1316   -31170.131    2044.4394   -298.17306 
 9540000    1005.4872   -32261.808    1091.6132   -31170.194    2049.5264   -331.83632 
 9544000    999.34796   -32255.078    1084.9481    -31170.13    2054.6834   -253.63162 
 9548000    998.29856   -32253.996    1083.8088   -31170.187    2059.8651   -154.21387 
 9552000     1000.825   -32256.689    1086.5516   -31170.137    2065.1263   -234.74124 
 9556000    997.23418   -32252.836    1082.6532   -31170.183    2070.2931   -364.49268 
 9560000    993.19758   -32248.461    1078.2709    -31170.19    2075.2369   -190.84831 
 9564000    996.62614   -32252.189    1081.9931   -31170.196    2080.2282   -429.42081 
 9568000    1001.0728   -32256.995    1086.8207   -31170.174      2085.56   -169.61349 
 9572000    996.76135   -32252.313    1082.1399   -31170.173    2090.4999   -290.10684 
 9576000    999.84501   -32255.664    1085.4877   -31170.177    2096.2102   -266.63164 
 9580000    1001.5905   -32257.581    1087.3827   -31170.199    2101.7208   -313.89928 
 9584000    999.33639    -32255.08    1084.9355   -31170.144    2106.9974   -267.72534 
 9588000    999.36864   -32255.144    1084.9705   -31170.174    2112.3545   -121.33411 
 9592000     1005.152   -32261.428    1091.2492   -31170.179    2117.5973    -224.3891 
 9596000    1002.4763   -32258.538    1088.3444   -31170.194    2122.8282   -159.29352 
 9600000    1003.9755   -32260.168     1089.972   -31170.196    2128.1576   -111.58889 
 9604000    998.67652   -32254.392    1084.2191   -31170.173    2133.1688   -268.73079 
 9608000    992.67958   -32247.886    1077.7085   -31170.178    2138.2226   -72.464607 
 9612000    1001.7893   -32257.748    1087.5985   -31170.149    2143.5871   -222.59383 
 9616000    1005.0788   -32261.359    1091.1698    -31170.19    2149.0728   -185.41031 
 9620000    999.98066   -32255.801     1085.635   -31170.166    2154.8813   -105.40276 
 9624000    1000.7763   -32256.675    1086.4987   -31170.176    2160.3227   -271.19129 
 9628000    994.82579   -32250.235    1080.0385   -31170.197    2165.1868   -289.37976 
 9632000    1003.7336   -32259.893    1089.7094   -31170.184    2169.9892   -270.63433 
 9636000     996.4543   -32252.009    1081.8065   -31170.203    2174.9959   -310.80769 
 9640000    995.33206   -32250.754    1080.5882   -31170.166    2180.1492   -172.34515 
 9644000    991.63344   -32246.733    1076.5728    -31170.16    2185.5099   -71.962353 
 9648000    1005.5346   -32261.806    1091.6646   -31170.141     2190.774   -262.32963 
 9652000    995.45279   -32250.862    1080.7192   -31170.142    2195.8856   -228.86176 
 9656000    993.83651   -32249.109    1078.9645   -31170.145    2201.1724   -233.63808 
 9660000    1001.0627   -32256.972    1086.8097   -31170.163    2206.3113   -81.316264 
 9664000     1005.991   -32262.331    1092.1602   -31170.171    2211.5827   -125.65908 
 9668000    1000.5103    -32256.33      1086.21    -31170.12    2217.3821   -144.79465 
 9672000    1002.2854    -32258.26    1088.1371   -31170.123    2222.6718   -243.86029 
 9676000    993.38625   -32248.625    1078.4757   -31170.149    2227.9099   -225.71796 
 9680000    1000.6281   -32256.491    1086.3378   -31170.153    2233.4775   -173.38565 
 9684000    993.63133   -32248.878    1078.7418   -31170.136     2238.733   -205.19543 
 9688000    1000.3252    -32256.13     1086.009   -31170.121    2243.7334   -270.55487 
 9692000    1017.0126   -32274.236    1104.1258    -31170.11    2248.5279   -177.22286 
 9696000    1003.6818   -32259.811    1089.6531   -31170.158    2253.9397   -196.97136 
 9700000    994.17982   -32249.475    1079.3372   -31170.138    2260.0798   -113.99525 
 9704000    1000.8668   -32256.695     1086.597   -31170.098    2265.7415   -326.58761 
 9708000    1002.8394   -32258.893    1088.7386   -31170.154    2271.0514   -249.07729 
 9712000    993.61845   -32248.869    1078.7278   -31170.142    2276.2042   -247.52951 
 9716000     992.0825   -32247.188    1077.0603   -31170.128    2281.4801   -258.97373 
 9720000    999.74912   -32255.515    1085.3836   -31170.131    2286.8298   -122.15008 
 9724000     1006.461   -32262.806    1092.6704   -31170.135    2292.3603   -297.39903 
 9728000    997.63739   -32253.205     1083.091   -31170.114    2297.3714   -235.95208 
 9732000    1001.3713   -32257.286    1087.1447   -31170.142    2302.5251   -187.83199 
 9736000    998.35402   -32253.994     1083.869   -31170.125    2307.3107   -260.27295 
 9740000    996.47124    -32251.99    1081.8249   -31170.165    2312.9359   -218.66953 
 9744000    999.99042   -32255.783    1085.6456   -31170.138    2318.1986   -123.89324 
 9748000    1000.3621   -32256.175    1086.0491   -31170.126    2323.5857   -58.647578 
 9752000    1002.3243   -32258.333    1088.1794   -31170.153    2329.0034   -207.14075 
 9756000    1008.4074   -32264.938    1094.7835   -31170.154    2334.8331   -46.899898 
 9760000    1005.6125   -32261.897    1091.7492   -31170.148    2340.1013   -330.88974 
 9764000    1009.9148   -32266.555      1096.42   -31170.135    2344.9727    -292.5159 
 9768000    995.35664   -32250.788    1080.6149   -31170.173     2349.545   -226.09916 
 9772000    996.82111   -32252.367    1082.2048   -31170.163    2354.9497   -148.09026 
 9776000    995.88448   -32251.354    1081.1879   -31170.166    2360.3993   -335.08248 
 9780000    1005.8203   -32262.125    1091.9748   -31170.151    2365.8969   -317.62268 
 9784000    1000.2699   -32256.133     1085.949   -31170.184    2371.0043    -284.4793 
 9788000    1001.7987   -32257.778    1087.6087   -31170.169    2376.0659   -31.092998 
 9792000    1009.7254   -32266.394    1096.2144    -31170.18    2381.4637   -191.44922 
 9796000    1005.2668   -32261.587    1091.3739   -31170.213    2386.4651    -256.4541 
 9800000    1000.9608   -32256.878     1086.699   -31170.179    2391.2209   -170.29669 
 9804000    1007.9129   -32264.423    1094.2467   -31170.176    2397.0408   -175.25867 
 9808000    993.92929   -32249.251    1079.0653   -31170.186    2402.3288   -271.23696 
 9812000    1011.4823   -32268.318    1098.1218   -31170.196    2407.4626   -119.93962 
 9816000    991.22252   -32246.305    1076.1266   -31170.179    2411.9319    -167.8929 
 9820000    1015.8802   -32273.134    1102.8964   -31170.238    2417.0477   -265.43329 
 9824000    991.93505   -32247.119    1076.9002   -31170.218    2421.8052   -188.72369 
 9828000    1008.5547   -32265.086    1094.9434   -31170.142     2426.536    -231.4264 
 9832000    1005.3921   -32261.696    1091.5099   -31170.187    2431.9938   -225.21241 
 9836000    1006.5414   -32262.936    1092.7577   -31170.179    2437.1353   -248.60375 
 9840000     996.4393   -32251.953    1081.7903   -31170.163    2442.9644   -124.65111 
 9844000    993.49947   -32248.809    1078.5986   -31170.211     2448.333   -129.95805 
 9848000    1012.0378   -32268.929    1098.7249   -31170.204    2454.2679   -200.29981 
 9852000    1004.9314   -32261.169    1091.0097   -31170.159    2459.7016      -108.15 
 9856000    982.90345   -32237.279     1067.095   -31170.184    2465.0891   -237.62232 
 9860000    997.43988   -32253.064    1082.8765   -31170.187    2470.5845   -251.57076 
 9864000    1003.6126    -32259.76     1089.578   -31170.181    2475.4097   -192.89036 
 9868000    1001.1514   -32257.096    1086.9059    -31170.19    2480.7942   -263.50871 
 9872000    1000.8047    -32256.71    1086.5296    -31170.18    2486.3339   -173.29657 
 9876000    990.56198   -32245.598    1075.4095   -31170.189    2492.3271   -179.61869 
 9880000    1009.0058   -32265.633    1095.4332     -31170.2    2497.9491    -126.5203 
 9884000    997.24763   -32252.864    1082.6678   -31170.196    2502.9616   -192.06837 
 9888000     1001.777   -32257.773    1087.5852   -31170.188    2508.9529   -133.13415 
 9892000    1007.8629   -32264.367    1094.1924   -31170.174     2514.656   -164.67896 
 9896000    999.29711    -32255.07    1084.8929   -31170.178    2519.6614   -91.172069 
 9900000    1001.6583   -32257.641    1087.4563   -31170.185    2524.7968   -104.95709 
 9904000     1001.475   -32257.454    1087.2573   -31170.197    2530.1648   -73.647671 
 9908000    1002.4041   -32258.458    1088.2659   -31170.192    2536.2419   -179.77579 
 9912000    996.06208    -32251.57    1081.3807   -31170.189    2541.5435   -109.49982 
 9916000    1005.7879   -32262.121    1091.9397   -31170.181    2547.0217   -20.056655 
 9920000    1003.9615   -32260.151    1089.9568   -31170.194    2552.6879   -149.47137 
 9924000    994.90419   -32250.347    1080.1237   -31170.223    2558.0027   -178.86352 
 9928000    1003.9498   -32260.177    1089.9441   -31170.233    2563.7046    -226.8579 
 9932000    994.93855   -32250.378     1080.161   -31170.217    2568.9224   -161.82378 
 9936000    999.12905   -32254.895    1084.7104   -31170.185    2574.0264   -193.27226 
 9940000    1003.0849   -32259.223    1089.0051   -31170.218    2579.1647   -226.32208 
 9944000    1012.1127   -32269.003    1098.8062   -31170.197    2584.9193   -162.45645 
 9948000     991.3822   -32246.512       1076.3   -31170.212    2590.6301   -216.40865 
 9952000    978.79914   -32232.854    1062.6391   -31170.215    2595.7942   -140.67666 
 9956000    1011.9173   -32268.811     1098.594   -31170.217    2601.1584   -88.895899 
 9960000    1022.2873   -32280.076    1109.8523   -31170.224    2606.1759   -280.18165 
 9964000    994.55279   -32249.961    1079.7422   -31170.218    2611.5058   -225.74849 
 9968000     996.5729   -32252.129    1081.9353   -31170.194    2617.3465   -82.135562 
 9972000    1005.8515   -32262.228    1092.0087    -31170.22    2622.5992   -184.69754 
 9976000    995.68397   -32251.197    1080.9702   -31170.227    2627.8743   -237.13242 
 9980000    1005.0827   -32261.397     1091.174   -31170.223    2633.7424   -239.18617 
 9984000    998.92311    -32254.71    1084.4868   -31170.223    2638.2767   -195.36663 
 9988000    1008.6912   -32265.296    1095.0916   -31170.204    2643.6083   -248.10827 
 9992000      996.945   -32252.559    1082.3393   -31170.219    2649.0736   -313.02605 
 9996000    1011.9849     -32268.9    1098.6674   -31170.233    2654.2011   -276.50506 
10000000    992.49165   -32247.732    1077.5045   -31170.228     2659.869   -413.87295 
10004000    1009.3326   -32266.004     1095.788   -31170.216    2664.8539    -127.0245 
10008000    1004.6872   -32260.962    1090.7446   -31170.218    2670.3022   -72.829844 
10012000     1009.407   -32266.082    1095.8687   -31170.213    2675.7137   -67.347804 
10016000    1003.7074   -32259.915    1089.6809   -31170.235    2681.1252   -282.90124 
10020000    1006.0245   -32262.433    1092.1965   -31170.237    2686.4876   -225.23373 
10024000    1002.7909   -32258.925     1088.686   -31170.239    2692.3145    38.312713 
10028000    1018.6564   -32276.136    1105.9103   -31170.225    2698.3234    -261.7344 
10032000     1004.217   -32260.461    1090.2341   -31170.226    2703.8909   -258.21274 
10036000    1005.4582   -32261.795    1091.5817   -31170.214     2708.606   -236.55505 
10040000    1008.7344   -32265.353    1095.1385   -31170.214    2713.6673   -160.19476 
10044000    985.12537   -32239.743    1069.5072   -31170.236    2719.0438   -261.92297 
10048000    989.76261   -32244.784    1074.5417   -31170.242    2724.4012   -420.20256 
10052000    1001.4829   -32257.488    1087.2659   -31170.222    2729.7494   -344.47591 
10056000    994.91064   -32250.346    1080.1307   -31170.215    2734.8983   -230.32559 
10060000    998.76105   -32254.555    1084.3109   -31170.244    2740.3697   -204.53456 
10064000    1001.9422    -32257.98    1087.7646   -31170.216    2745.4247   -224.80322 
10068000    1009.9024   -32266.643    1096.4066   -31170.236    2751.2906   -98.032819 
10072000    1003.1531   -32259.288    1089.0792   -31170.208    2757.0836   -198.07634 
10076000    1001.3473    -32257.34    1087.1187   -31170.221     2762.151   -274.37057 
10080000      988.219   -32243.106    1072.8658    -31170.24    2766.8369   -230.97015 
10084000    994.38823   -32249.811    1079.5635   -31170.248    2772.2604   -265.94122 
10088000    1006.2741   -32262.701    1092.4674   -31170.233    2777.9412   -234.16298 
10092000    1003.7975   -32260.018    1089.7788   -31170.239    2782.7189   -148.48907 
10096000    996.58361   -32252.188    1081.9469   -31170.241    2788.2275   -192.95805 
10100000    1009.6236   -32266.335    1096.1039   -31170.231    2793.3696   -171.49623 
10104000    985.36356   -32239.993    1069.7658   -31170.228    2798.7577   -262.27902 
10108000    994.78657   -32250.231     1079.996   -31170.235    2803.7371   -196.59526 
10112000    999.18528   -32255.015    1084.7714   -31170.244    2808.4659   -227.65573 
10116000    1001.9375   -32258.011    1087.7594   -31170.251    2813.3041    -183.0058 
10120000    1002.1814   -32258.246    1088.0242   -31170.222    2818.7852   -207.16506 
10124000    997.58736   -32253.291    1083.0367   -31170.254    2824.0635   -104.54008 
10128000    997.62931   -32253.349    1083.0822   -31170.266    2829.4706   -165.24728 
10132000     999.7781   -32255.679    1085.4151   -31170.264    2834.5918   -75.563694 
10136000    995.52665   -32251.044    1080.7994   -31170.245    2839.5253   -257.77302 
10140000    990.73592   -32245.858    1075.5983    -31170.26    2844.7873   -201.89617 
10144000    998.79923   -32254.623    1084.3523   -31170.271    2850.0649   -157.97929 
10148000    991.79749   -32247.002    1076.7509   -31170.251    2854.8932   -225.73691 
10152000    998.66417   -32254.448    1084.2057   -31170.243    2859.9469   -173.75482 
10156000    1013.5002   -32270.566    1100.3125   -31170.253    2865.8544   -152.65312 
10160000    1004.9955   -32261.316    1091.0794   -31170.237    2871.8624   -172.70547 
10164000    1001.2695   -32257.307    1087.0342   -31170.273    2877.5941   -181.47688 
10168000    1007.6611   -32264.236    1093.9733   -31170.263    2883.6051   -158.93136 
10172000    998.85098   -32254.653    1084.4085   -31170.244    2888.7386   -90.656372 
10176000     1009.502   -32266.225    1095.9719   -31170.253     2893.906   -83.099831 
10180000    995.16026   -32250.676    1080.4017   -31170.274     2899.307   -229.78032 
10184000     997.0247   -32252.706    1082.4258    -31170.28    2905.1473   -224.61483 
10188000    1010.3595   -32267.179    1096.9028   -31170.276    2910.5565   -150.32457 
10192000    990.18013    -32245.25     1074.995   -31170.255    2915.6681   -126.99867 
10196000    998.19411   -32253.953    1083.6954   -31170.257    2920.8295   -192.97165 
10200000    989.51471   -32244.557    1074.2725   -31170.284    2925.7553   -195.15229 
10204000    991.16818   -32246.362    1076.0676   -31170.294    2930.9492   -99.453774 
10208000    1000.1406   -32256.109    1085.8087     -31170.3    2936.2696   -83.263804 
10212000    1004.5522   -32260.876     1090.598   -31170.278     2941.482   -248.31645 
10216000     999.2228   -32255.121    1084.8122   -31170.309    2946.6655   -311.96529 
10220000    1001.0658   -32257.124     1086.813   -31170.311    2951.8515     -93.0706 
10224000    1002.3053   -32258.447    1088.1588   -31170.288    2956.5617     -130.081 
10228000    990.92241   -32246.106    1075.8008   -31170.306    2961.7574   -165.48137 
10232000    1000.9165   -32256.929     1086.651   -31170.278    2967.0461   -250.44608 
10236000    1014.2309   -32271.416    1101.1059   -31170.311    2972.5624   -235.00769 
10240000    998.94274   -32254.845    1084.5081   -31170.337    2977.3794   -202.73224 
10244000    1006.7054   -32263.212    1092.9357   -31170.276    2982.4797   -241.99558 
10248000    1007.8833   -32264.494    1094.2145   -31170.279    2987.2012   -262.48512 
10252000    998.21718   -32253.989    1083.7204   -31170.268    2992.0891   -98.527214 
10256000    1000.9223    -32256.98    1086.6573   -31170.323    2997.3461   -138.20244 
10260000    999.99816   -32255.953     1085.654   -31170.299    3003.2444   -83.278348 
10264000    1004.5271   -32260.845    1090.5708   -31170.274     3008.626   -254.32747 
10268000    993.36252   -32248.714    1078.4499   -31170.264    3013.7946   -14.136404 
10272000    999.02241    -32254.85    1084.5946   -31170.255    3019.5414   -164.19368 
10276000    1002.7698   -32258.921     1088.663   -31170.258     3024.603   -209.22183 
10280000    996.16246   -32251.757    1081.4897   -31170.267    3030.4529   -163.72386 
10284000    996.71983   -32252.323    1082.0948   -31170.228    3036.2549    -98.70243 
10288000    996.63179   -32252.241    1081.9992   -31170.241    3041.8009   -157.72757 
10292000     999.4492   -32255.316     1085.058   -31170.258    3047.1749   -121.83503 
10296000    992.89856   -32248.197    1077.9462    -31170.25    3051.8055   -181.42093 
10300000    998.55183   -32254.335    1084.0837   -31170.251    3056.8532   -177.07141 
10304000    1001.3233   -32257.346    1087.0926   -31170.254    3062.1606   -193.97168 
10308000    1002.9317   -32259.125    1088.8388   -31170.286    3066.8899   -217.12133 
10312000    1000.9634   -32256.934    1086.7019   -31170.232    3071.9749   -74.624351 
10316000    1002.1774   -32258.279    1088.0199   -31170.259    3077.5202   -109.74571 
10320000    996.84267   -32252.476    1082.2282   -31170.247    3083.1868   -166.45912 
10324000    1003.3476   -32259.571    1089.2903   -31170.281    3088.3386    -165.3252 
10328000    1005.0724   -32261.427    1091.1628   -31170.264    3093.9836   -178.27167 
10332000    1013.6384   -32270.719    1100.4626   -31170.256    3098.8554   -166.26795 
10336000    1000.0856   -32256.017    1085.7489   -31170.268    3104.1974   -217.96941 
10340000    998.95926   -32254.777    1084.5261   -31170.251    3109.6864   -107.29148 
10344000    1001.8659   -32257.942    1087.6816    -31170.26    3115.2657   -290.25336 
10348000    997.09896   -32252.772    1082.5064   -31170.266     3121.222   -227.48591 
10352000    1003.7128   -32259.951    1089.6868   -31170.264    3126.5395   -287.23511 
10356000    1011.8974   -32268.826    1098.5724   -31170.254    3131.6546    68.649979 
10360000    1008.7007   -32265.369    1095.1019   -31170.267    3137.4223   -223.77862 
10364000    1006.9182   -32263.463    1093.1667   -31170.297    3142.6159   -226.56357 
10368000    994.91982   -32250.464    1080.1406   -31170.323    3147.2835   -111.36141 
10372000      1010.44   -32267.252    1096.9902   -31170.262    3152.5357   -294.24904 
10376000     990.3071   -32245.425    1075.1328   -31170.292    3158.1143    -139.6974 
10380000    1004.8735   -32261.247    1090.9469     -31170.3    3163.1034   -206.97134 
10384000    996.93858   -32252.615    1082.3323   -31170.282    3168.1571    -197.6482 
10388000    988.87037   -32243.846     1073.573   -31170.273    3173.7366   -174.17355 
10392000    998.38073   -32254.144     1083.898   -31170.246      3179.19   -218.11039 
10396000    1002.3603   -32258.472    1088.2185   -31170.253    3185.0723   -95.325679 
10400000    998.00859   -32253.799     1083.494   -31170.305    3190.3104     -155.694 
10404000    994.56424   -32249.996    1079.7546   -31170.241     3195.615   -200.17084 
10408000     1007.887   -32264.481    1094.2185   -31170.262     3200.844   -238.24794 
10412000    1001.2099   -32257.232    1086.9695   -31170.263    3206.4886   -233.19777 
10416000     1003.082   -32259.261    1089.0019    -31170.26    3211.2562   -190.45894 
10420000    999.77461   -32255.704    1085.4113   -31170.292    3216.5619   -186.55804 
10424000     996.6752   -32252.354    1082.0464   -31170.307    3221.9096   -152.00888 
10428000    1006.5302   -32263.011    1092.7455   -31170.265    3227.3089   -127.09299 
10432000     995.9664   -32251.552    1081.2769   -31170.275    3231.7546   -65.891268 
10436000    992.95172   -32248.271    1078.0039   -31170.268    3236.8836   -250.77168 
10440000    1012.3857   -32269.383    1099.1026    -31170.28    3242.0301   -100.22311 
10444000    993.02406    -32248.38    1078.0825   -31170.297    3246.9528    -313.3288 
10448000    996.05969   -32251.671    1081.3781   -31170.293    3252.5827   -177.28187 
10452000    995.07279   -32250.594    1080.3067   -31170.287    3257.7768   -259.27375 
10456000    1002.2529   -32258.412    1088.1018    -31170.31    3263.0242   -336.77041 
10460000    999.63312   -32255.558    1085.2576   -31170.301    3268.5439   -57.474498 
10464000    1007.6055   -32264.187    1093.9129   -31170.274    3273.7858   -52.857484 
10468000     1006.154   -32262.611    1092.3371   -31170.274    3279.3391   -25.063039 
10472000     1005.363   -32261.775    1091.4784   -31170.297    3284.8106   -262.89445 
10476000    998.47166   -32254.291    1083.9967   -31170.294    3290.0938   -129.89191 
10480000    995.71316   -32251.284    1081.0019   -31170.282    3294.7581    -89.41552 
10484000    1008.4159   -32265.061    1094.7927   -31170.269    3300.0041   -331.75031 
10488000    1011.3052   -32268.226    1097.9295   -31170.297    3305.0954   -221.89401 
10492000    993.22957   -32248.601    1078.3056   -31170.296    3309.8491   -258.54356 
10496000    1005.0937   -32261.485     1091.186   -31170.299    3314.6137   -306.19269 
10500000    997.74832   -32253.498    1083.2114   -31170.286      3319.52   -311.84972 
10504000    1003.7728   -32260.038     1089.752   -31170.286    3324.6746   -200.26315 
10508000    1002.9409   -32259.132    1088.8488   -31170.283    3329.7969   -176.78123 
10512000    994.23521   -32249.694    1079.3974   -31170.297    3334.7996   -267.37176 
10516000    1006.8013   -32263.313    1093.0398   -31170.273    3341.0466   -234.64076 
10520000    1005.6222   -32262.006    1091.7597   -31170.247    3347.2048   -185.00567 
10524000    997.28718   -32252.985    1082.7108   -31170.274    3352.7004   -169.27963 
10528000    997.71387    -32253.45     1083.174   -31170.276    3357.6354   -86.652596 
10532000    1005.9448   -32262.383      1092.11   -31170.273    3362.6815   -78.145393 
10536000    1002.0176   -32258.136    1087.8463   -31170.289    3367.9512   -242.02211 
10540000     1004.617   -32260.976    1090.6684   -31170.307    3373.2816   -123.13038 
10544000    998.85656   -32254.694    1084.4146    -31170.28    3377.6564   -272.37111 
10548000    995.33987     -32250.9    1080.5967   -31170.303    3383.3943   -286.81922 
10552000    1001.5446   -32257.599    1087.3329   -31170.266    3388.5759   -246.77121 
10556000    1002.0983   -32258.232     1087.934   -31170.298    3393.6155   -146.40642 
10560000    997.85307   -32253.609    1083.3251   -31170.284     3399.044   -223.04948 
10564000    995.97167   -32251.592    1081.2826    -31170.31    3404.3394   -66.872075 
10568000    1003.4829   -32259.714    1089.4372   -31170.276    3409.2677   -259.02837 
10572000    998.66208   -32254.513    1084.2034   -31170.309    3414.8039    13.254285 
10576000    1006.7847   -32263.315    1093.0218   -31170.293    3420.7034    -114.8048 
10580000    994.31076   -32249.764    1079.4794   -31170.284    3426.1354   -116.70468 
10584000    1001.9423    -32258.05    1087.7646   -31170.285    3432.2382   -158.83046 
10588000     992.6021   -32247.938    1077.6244   -31170.314    3437.7455   -274.52176 
10592000    1013.9837   -32271.117    1100.8374   -31170.279    3443.6873   -208.46226 
10596000    1002.4656   -32258.622    1088.3328   -31170.289    3448.8563   -309.80275 
10600000    999.07146   -32254.939    1084.6479   -31170.291    3454.4663   -206.99766 
10604000    1007.1355   -32263.679    1093.4027   -31170.276    3460.0631   -195.14505 
10608000    998.03712   -32253.831    1083.5249   -31170.306      3465.31   -252.24402 
10612000    1010.9243   -32267.817    1097.5159   -31170.301    3470.6814   -76.760271 
10616000     997.1416   -32252.846    1082.5527   -31170.293    3475.9466   -185.27301 
10620000    1008.2201   -32264.864    1094.5802   -31170.284    3481.7093   -169.89023 
10624000    1000.8214   -32256.855    1086.5477   -31170.307    3487.1988   -162.36455 
10628000    999.64244   -32255.578    1085.2678    -31170.31    3492.4267   -180.70212 
10632000    1007.6552    -32264.25    1093.9668   -31170.283    3497.8004    -151.3821 
10636000    1004.8925   -32261.265    1090.9675   -31170.297    3503.0031   -59.525668 
10640000    1006.0846   -32262.567    1092.2618   -31170.305     3507.778   -195.59694 
10644000    1001.5701   -32257.641    1087.3605   -31170.281    3513.0724   -166.01636 
10648000    995.19765   -32250.738    1080.4423   -31170.296    3518.4224   -85.220197 
10652000    993.66914   -32249.087    1078.7828   -31170.304     3523.649   -200.11361 
10656000     996.5646   -32252.174    1081.9263   -31170.248    3529.1057   -123.51095 
10660000    1000.3883    -32256.34    1086.0775   -31170.262    3534.4604   -164.57039 
10664000    1000.8778   -32256.858     1086.609   -31170.249    3539.9034   -238.02687 
10668000    993.01056   -32248.335    1078.0678   -31170.267    3545.2629   -135.39266 
10672000    993.42163   -32248.817    1078.5141   -31170.303    3550.4167    -180.1047 
10676000    1003.2029   -32259.387    1089.1332   -31170.254    3555.6786   -208.77774 
10680000    995.39142   -32250.903    1080.6526   -31170.251    3560.8412   -222.67452 
10684000    991.42686   -32246.599    1076.3485   -31170.251     3565.755   -282.29276 
10688000    997.31142   -32253.015    1082.7371   -31170.278    3571.0984   -53.466384 
10692000    998.05365   -32253.819    1083.5429   -31170.276    3576.1346   -152.15363 
10696000    1005.2281   -32261.611    1091.3319   -31170.279    3581.3251   -192.38377 
10700000    1000.1034   -32256.046    1085.7683   -31170.278    3586.6005   -61.089653 
10704000    999.86532   -32255.774    1085.5097   -31170.264    3591.8769   -312.77483 
10708000    1003.3025   -32259.506    1089.2413   -31170.264    3597.4468   -240.99487 
10712000    1008.4879   -32265.139    1094.8709   -31170.268    3602.9309   -279.90536 
10716000    1002.6785   -32258.814    1088.5639   -31170.251     3608.132   -337.95109 
10720000     999.0249   -32254.855    1084.5973   -31170.257    3612.9631   -324.50104 
10724000    999.17327   -32255.018    1084.7584   -31170.259     3618.836   -211.04067 
10728000    1012.2062    -32269.15    1098.9077   -31170.243    3624.0687   -178.18426 
10732000    997.85803   -32253.582    1083.3305   -31170.251    3629.5942   -358.53137 
10736000    1013.7743   -32270.871    1100.6101   -31170.261    3634.9889   -179.13592 
10740000    993.62907   -32249.017    1078.7393   -31170.278    3640.7463   -236.77952 
10744000    1011.9035   -32268.844    1098.5791   -31170.265    3645.5415   -248.29585 
10748000    1008.5924   -32265.245    1094.9844   -31170.261    3650.7181   -104.21883 
10752000    1001.8678   -32257.959    1087.6837   -31170.275     3656.222   -230.99166 
10756000    992.42825   -32247.708    1077.4356   -31170.272     3661.521   -191.80998 
10760000    995.15201   -32250.671    1080.3927   -31170.278    3666.9312   -174.76097 
10764000    998.43376   -32254.224    1083.9556   -31170.268    3672.0678    -270.1492 
10768000    996.10828   -32251.703    1081.4309   -31170.272    3677.1413   -86.493983 
10772000    990.57585   -32245.689    1075.4246   -31170.264    3682.9809   -28.841007 
10776000    1003.1994   -32259.404    1089.1294   -31170.274    3688.3613   -73.249168 
10780000    993.67971   -32249.062    1078.7943   -31170.268    3693.8553   -161.84877 
10784000    994.08269   -32249.493    1079.2318   -31170.261    3699.2641   -112.71246 
10788000     995.4768   -32251.006    1080.7453   -31170.261    3704.6735   -136.16755 
10792000     1000.113   -32256.033    1085.7786   -31170.255    3709.8651   -164.63286 
10796000    1006.0085    -32262.44    1092.1791    -31170.26    3715.8154   -103.80857 
10800000     1005.413   -32261.779    1091.5327   -31170.247    3720.4543   -74.866333 
10804000    998.93871   -32254.742    1084.5038   -31170.238     3725.728   -290.00585 
10808000    995.21625   -32250.735    1080.4624   -31170.273     3730.675    -154.0399 
10812000    1000.5003   -32256.455    1086.1991   -31170.256    3736.0711   -242.65964 
10816000    1003.8233    -32260.06    1089.8068   -31170.253    3741.0352   -134.62071 
10820000    1012.0096   -32268.955    1098.6942   -31170.261    3747.0571    -77.83287 
10824000    994.01607   -32249.399    1079.1595   -31170.239    3752.3431   -196.66032 
10828000     1005.387   -32261.761    1091.5043   -31170.257    3758.2487   -131.07355 
10832000    991.05073   -32246.194    1075.9401   -31170.253    3763.1959   -187.40886 
10836000    1000.3196   -32256.273     1086.003    -31170.27    3767.9502   -213.69072 
10840000    998.13082   -32253.905    1083.6267   -31170.278    3773.4489    -75.11892 
10844000    1006.4647   -32262.975    1092.6744     -31170.3      3778.53   -276.65643 
10848000    1007.5037   -32264.026    1093.8023   -31170.224    3783.7873   -212.58804 
10852000    1002.6193   -32258.756    1088.4996   -31170.256    3789.2033   -172.88137 
10856000    1004.5817   -32260.884    1090.6301   -31170.254    3794.4669   -239.13478 
10860000    1002.8041   -32258.964    1088.7003   -31170.264    3799.3026   -126.80829 
10864000    1004.0562   -32260.324    1090.0596   -31170.264    3804.4907   -57.538167 
10868000    998.79014   -32254.619    1084.3425   -31170.277    3810.1081   -185.16298 
10872000    1000.1193   -32256.056    1085.7854   -31170.271    3815.4264   -119.19588 
10876000    993.49651   -32248.881    1078.5954   -31170.285    3820.3684   -158.31218 
10880000    1003.4416   -32259.669    1089.3923   -31170.276    3825.3866    -200.5204 
10884000    1010.1214   -32266.924    1096.6443    -31170.28    3831.4043   -135.21638 
10888000    1007.1238   -32263.627    1093.3899   -31170.237    3836.2956   -136.16564 
10892000    995.70869   -32251.249    1080.9971   -31170.252    3841.1153   -255.05305 
10896000    997.54132    -32253.21    1082.9867   -31170.223     3846.234    -308.3833 
10900000    997.38442   -32253.074    1082.8163   -31170.257     3851.689   -312.24052 
10904000    995.42286   -32250.933    1080.6868   -31170.247    3857.0891   -246.41046 
10908000    1009.7359   -32266.465    1096.2258   -31170.239    3862.2663   -219.56408 
10912000    985.57273   -32240.248    1069.9929   -31170.255    3867.3233    -291.2145 
10916000    1012.0985   -32269.024    1098.7908   -31170.233    3873.1918   -182.69487 
10920000    1005.7549   -32262.159    1091.9038   -31170.255     3878.494   -38.912584 
10924000    1002.8369    -32258.97    1088.7359   -31170.234    3883.5858   -231.13712 
10928000     995.7055   -32251.236    1080.9936   -31170.242    3888.8935   -249.22208 
10932000    1000.8801   -32256.843    1086.6114   -31170.231    3894.0631   -261.54656 
10936000    998.44288    -32254.19    1083.9655   -31170.224    3899.2636   -191.62956 
10940000    1003.1254   -32259.282     1089.049   -31170.233    3904.0045   -248.32887 
10944000    996.19774   -32251.768     1081.528    -31170.24    3909.6672   -144.26639 
10948000     995.0568   -32250.501    1080.2893   -31170.211    3915.2948   -114.44612 
10952000    1001.0139       -32257    1086.7567   -31170.243    3920.4937   -210.22946 
10956000    1000.7213   -32256.677     1086.439   -31170.238    3925.5459   -208.88344 
10960000    1001.9385   -32257.995    1087.7605   -31170.235    3930.4282   -168.64219 
10964000    1002.8458   -32258.975    1088.7455   -31170.229     3935.773   -222.86445 
10968000    988.25351   -32243.144    1072.9033   -31170.241    3940.5505   -184.35105 
10972000    1003.6035   -32259.819    1089.5681   -31170.251    3945.9781   -196.43952 
10976000    993.65603   -32248.989    1078.7686   -31170.221    3951.3986   -181.46731 
10980000    1001.0819   -32257.066    1086.8305   -31170.235    3955.9964   -147.82217 
10984000     1000.785   -32256.763    1086.5082   -31170.254    3961.4052   -338.15032 
10988000    1004.6873       -32261    1090.7448   -31170.255    3966.4445   -245.89526 
10992000    1003.9973   -32260.238    1089.9956   -31170.242    3971.9573   -243.55191 
10996000    999.43541   -32255.316     1085.043   -31170.273     3977.323   -83.069276 
11000000    1010.0483    -32266.79    1096.5649   -31170.225    3981.9724   -249.90755 
11004000    1005.6918   -32262.097    1091.8353   -31170.262    3987.7482   -243.81064 
11008000    1005.8529   -32262.232    1092.0102   -31170.222    3993.3225   -328.55862 
11012000    994.07538   -32249.439    1079.2239   -31170.215    3998.9333   -84.607893 
11016000    987.02469   -32241.816    1071.5692   -31170.246    4004.5617   -131.76776 
11020000    1002.8528   -32259.007    1088.7531   -31170.254    4009.5244   -63.714896 
11024000    988.82915    -32243.75    1073.5283   -31170.222     4014.793   -258.49423 
11028000    996.79881   -32252.387    1082.1806   -31170.207    4019.3947   -203.73201 
11032000    998.75388   -32254.549    1084.3031   -31170.246    4024.1124   -228.23431 
11036000     993.4545   -32248.806    1078.5498   -31170.257    4029.1328   -267.24909 
11040000     996.8411    -32252.45    1082.2265   -31170.224    4034.3915   -123.90029 
11044000    996.35206   -32251.929    1081.6955   -31170.233    4039.5012   -266.70434 
11048000    990.86227   -32245.975    1075.7355    -31170.24    4045.2267   -119.80943 
11052000    1001.6052   -32257.662    1087.3986   -31170.264    4050.2171   -215.45023 
11056000    995.11011   -32250.622    1080.3472   -31170.275    4055.4572   -120.86586 
11060000    995.97543   -32251.508    1081.2867   -31170.221    4060.1386   -171.48061 
11064000    998.49263   -32254.277    1084.0195   -31170.258    4065.1916   -24.060205 
11068000    1004.0664   -32260.307    1090.0707   -31170.236    4070.7425   -90.018482 
11072000    998.87055   -32254.652    1084.4298   -31170.222    4076.5058   -78.773546 
11076000    1000.9453   -32256.919    1086.6822   -31170.237    4081.9613   -153.67973 
11080000      1009.75   -32266.495    1096.2411   -31170.254    4086.9597   -250.23983 
11084000    1001.5575   -32257.578    1087.3469   -31170.231    4092.1365   -299.21308 
11088000    1005.2791    -32261.65    1091.3872   -31170.262    4097.4232   -88.786202 
11092000      1015.87   -32273.106    1102.8853   -31170.221     4102.506   -353.24355 
11096000    994.15131   -32249.546    1079.3063    -31170.24    4107.5623   -176.05037 
11100000    1000.2632   -32256.143    1085.9417   -31170.202    4112.7708   -168.41514 
11104000     996.7519   -32252.337    1082.1296   -31170.208    4118.1833   -184.25868 
11108000    1002.7982    -32258.92    1088.6939   -31170.226    4123.4251   -134.73948 
11112000    999.22519   -32255.038    1084.8148   -31170.223    4129.2265   -222.47867 
11116000    1000.0428   -32255.917    1085.7025   -31170.214     4134.106   -153.07281 
11120000    1000.2691   -32256.171    1085.9482   -31170.223    4139.3261   -84.549418 
11124000    1000.5926   -32256.536    1086.2993   -31170.236     4144.601   -276.23948 
11128000    1013.8421   -32270.922    1100.6837   -31170.238    4149.3429   -197.71157 
11132000    1002.7818   -32258.885     1088.676   -31170.209    4155.0232   -143.86215 
11136000    1000.1263   -32256.015    1085.7931   -31170.221    4160.6835   -129.23595 
11140000    1005.6245   -32261.984    1091.7622   -31170.222     4166.021   -173.49243 
11144000    1009.0951   -32265.765    1095.5301   -31170.235    4171.2927   -260.16969 
11148000    1005.5797   -32261.945    1091.7136   -31170.231    4176.7787   -1.9530959 
11152000    1001.9267    -32257.99    1087.7477   -31170.242    4182.9158   -54.615704 
11156000    987.67642   -32242.501    1072.2768   -31170.224     4188.555   -148.62401 
11160000    1008.1267   -32264.722    1094.4787   -31170.243    4193.6819   -161.39067 
11164000    996.66405   -32252.252    1082.0343   -31170.218    4198.7048   -88.719664 
11168000    1007.2627   -32263.779    1093.5407   -31170.239    4203.6651   -207.25771 
11172000    1009.5134   -32266.236    1095.9843   -31170.251    4209.2149    -132.9277 
11176000    1000.5685   -32256.513    1086.2731    -31170.24     4214.424   -240.26362 
11180000    1003.0836   -32259.231    1089.0037   -31170.228     4219.259    -262.0306 
11184000    1005.0296   -32261.349    1091.1163   -31170.233     4224.405   -138.61374 
11188000    996.14289    -32251.72    1081.4685   -31170.252    4229.3734    17.171933 
11192000     1004.588    -32260.86    1090.6369   -31170.223    4234.1218   -151.80361 
11196000    1000.4485   -32256.388    1086.1429   -31170.245    4239.4307    -183.2889 
11200000    1001.6573   -32257.678    1087.4553   -31170.223    4245.0335     -267.433 
11204000    1006.2015    -32262.58    1092.3886   -31170.191    4250.3043   -174.91965 
11208000    991.25343   -32246.386    1076.1602   -31170.226    4255.5543   -193.72249 
11212000    997.12463   -32252.766    1082.5343   -31170.232    4260.5907   -281.20707 
11216000    1000.7205   -32256.692    1086.4382   -31170.254    4266.5159   -253.21838 
11220000    987.73897   -32242.597    1072.3447   -31170.253     4271.754   -260.44921 
11224000    1007.8668    -32264.45    1094.1966   -31170.253    4276.9797   -176.78006 
11228000    1003.6402   -32259.861    1089.6079   -31170.253    4282.9463   -74.272381 
11232000    993.46869    -32248.83    1078.5652   -31170.265     4288.774   -109.69537 
11236000     996.5082   -32252.133    1081.8651   -31170.268    4294.0106   -226.21852 
11240000    995.91491   -32251.457     1081.221   -31170.236    4299.6711   -225.90431 
11244000    992.55937   -32247.794     1077.578   -31170.216    4305.0764   -265.00062 
11248000    1010.6009   -32267.422    1097.1649   -31170.257    4310.4586   -46.108677 
11252000    994.75397   -32250.225    1079.9606   -31170.264    4315.9811   -157.69466 
11256000    1004.6439   -32260.926    1090.6977   -31170.228    4321.5027   -208.45501 
11260000    990.02759   -32245.087    1074.8294   -31170.258    4326.9839   -121.50841 
11264000    1003.7536   -32259.988     1089.731   -31170.257    4332.0719   -224.54616 
11268000    1001.6028   -32257.665     1087.396   -31170.269    4337.4825   -192.43935 
11272000    1004.6014   -32260.907    1090.6515   -31170.256    4342.6901   -94.829556 
11276000    1009.6802   -32266.394    1096.1653   -31170.228     4347.719   -243.00095 
11280000    999.60199   -32255.445    1085.2239   -31170.221    4352.9458   -185.43962 
11284000    998.93589   -32254.775    1084.5007   -31170.274    4358.5341   -217.63906 
11288000    1004.7934   -32261.096    1090.8599   -31170.236    4364.5595   -212.46622 
11292000    1003.4691   -32259.687    1089.4222   -31170.265    4369.7729   -244.28124 
11296000    999.23451   -32255.087    1084.8249   -31170.262    4375.0354   -183.23111 
11300000    1001.1716   -32257.171    1086.9279   -31170.243    4381.0321   -102.05572 
11304000    993.07657   -32248.401    1078.1395   -31170.261    4386.4572   -199.21468 
11308000    994.60329   -32250.042     1079.797   -31170.245    4391.5554   -194.69106 
11312000    999.41809   -32255.289    1085.0242   -31170.265    4396.5442   -301.19572 
11316000    992.68118   -32247.957    1077.7102   -31170.247    4402.6695   -131.60193 
11320000    998.99215   -32254.811    1084.5618   -31170.249    4408.4076   -106.87325 
11324000    1006.5517   -32263.018    1092.7688   -31170.249    4413.7822   -154.49782 
11328000    1001.4803   -32257.517     1087.263   -31170.254    4419.4414   -174.97021 
11332000    1004.0616   -32260.324    1090.0655   -31170.258    4424.2969   -158.38523 
11336000    1004.1586   -32260.403    1090.1708   -31170.232    4429.6726   -227.14714 
11340000    1008.9063   -32265.557    1095.3251   -31170.232    4435.1006   -283.85204 
11344000    995.36955   -32250.895    1080.6289   -31170.266    4440.7045   -123.42565 
11348000    1011.0891   -32267.953    1097.6949   -31170.258    4446.2369   -154.74177 
11352000    1004.5506   -32260.831    1090.5964   -31170.235     4450.801   -185.62352 
11356000    995.56907   -32251.088    1080.8455   -31170.243    4456.0214    -36.02608 
11360000    1003.6158   -32259.861    1089.5815   -31170.279    4460.8494   -218.96667 
11364000    1003.5996     -32259.8    1089.5639   -31170.236    4466.4141    -111.1711 
11368000    998.40976   -32254.202    1083.9295   -31170.272    4471.9024    -137.1261 
11372000    1000.4008   -32256.331     1086.091    -31170.24    4477.3689   -166.76272 
11376000    1005.7873   -32262.225     1091.939   -31170.286    4483.0759   -148.95271 
11380000     995.5042   -32251.058    1080.7751   -31170.283    4489.1844   -104.27736 
11384000    991.39065   -32246.597    1076.3092   -31170.288    4494.7023   -9.9067001 
11388000    1000.8204   -32256.791    1086.5467   -31170.244    4500.4539   -203.83876 
11392000    1004.7814   -32261.087    1090.8469    -31170.24     4505.857   -212.27584 
11396000     998.4949   -32254.269    1084.0219   -31170.247    4511.5864   -207.20227 
11400000    1013.1703   -32270.228    1099.9544   -31170.274    4516.9474    -253.7073 
11404000    1005.5096   -32261.901    1091.6375   -31170.263    4522.3746   -155.39953 
11408000    994.11961   -32249.541    1079.2719   -31170.269    4527.9839   -244.60453 
11412000    1004.0546   -32260.299    1090.0579   -31170.241    4533.6287   -255.52094 
11416000    1000.3009   -32256.247    1085.9826   -31170.264    4538.6466   -156.50978 
11420000     999.2507   -32255.073    1084.8425    -31170.23    4543.9745    -252.6791 
11424000    996.57763   -32252.195    1081.9404   -31170.255    4548.9824   -282.98506 
11428000    994.52004   -32249.974    1079.7066   -31170.268    4554.2034   -405.20737 
11432000    1001.6451   -32257.698     1087.442   -31170.256    4559.5739   -217.35643 
11436000    996.83774   -32252.452    1082.2228   -31170.229    4565.1393   -75.544713 
11440000      996.284   -32251.865    1081.6217   -31170.243     4570.731   -287.87579 
11444000      1002.73   -32258.834    1088.6198   -31170.214    4576.0585   -383.53599 
11448000    1000.1649   -32256.061     1085.835   -31170.226    4581.7522   -208.40732 
11452000    995.92902   -32251.471    1081.2363   -31170.235    4586.9292   -165.06902 
11456000    1006.7068   -32263.168    1092.9372   -31170.231    4593.0157   -216.39263 
11460000    1001.2676   -32257.276    1087.0321   -31170.244     4598.012   -250.88777 
11464000     997.8374   -32253.561    1083.3081   -31170.253    4603.5345   -263.19723 
11468000    998.39076   -32254.144    1083.9089   -31170.235    4609.7389   -99.716932 
11472000    1019.5227    -32277.08    1106.8509   -31170.229    4615.1018    -115.0393 
11476000    999.69315   -32255.558    1085.3228   -31170.235    4619.9449    -109.8298 
11480000    999.09744   -32254.917    1084.6761    -31170.24     4625.232    -275.8093 
11484000    991.32486   -32246.476    1076.2377   -31170.238    4630.3124   -177.75147 
11488000    996.42707   -32251.998     1081.777   -31170.221    4635.9643   -210.30356 
11492000    997.08974   -32252.739    1082.4964   -31170.242    4641.3453   -238.01624 
11496000    996.88699   -32252.518    1082.2763   -31170.241    4646.4291   -99.161835 
11500000    1003.9644   -32260.188    1089.9599   -31170.228     4651.953     -114.941 
11504000    1000.2627   -32256.151    1085.9411   -31170.209    4657.0141   -235.99113 
11508000    1002.9951   -32259.131    1088.9076   -31170.223    4662.6822   -75.930242 
11512000    988.04062   -32242.924    1072.6722   -31170.251    4667.7541   -166.74815 
11516000    1004.8009   -32261.099     1090.868   -31170.231    4673.2859   -159.18189 
11520000    986.46634   -32241.197    1070.9631   -31170.234    4678.4529   -200.84799 
11524000    992.23447   -32247.442    1077.2253   -31170.216    4683.8932   -222.78625 
11528000    1002.4038   -32258.454    1088.2656   -31170.188    4689.4144   -180.15926 
11532000     1000.235   -32256.125    1085.9111   -31170.214    4694.7722   -316.67076 
11536000    1006.6612   -32263.101    1092.8877   -31170.213    4699.8035   -41.239182 
11540000    1010.1189   -32266.867    1096.6416   -31170.225    4705.6563   -177.72124 
11544000    1006.6002   -32262.997    1092.8215   -31170.176    4711.8113    -176.1528 
11548000     995.1993   -32250.656    1080.4441   -31170.212     4717.659   -79.706586 
11552000    1005.0988    -32261.39    1091.1915   -31170.199     4722.972   -288.19439 
11556000    1000.8927   -32256.834    1086.6251   -31170.209    4729.1013   -278.35853 
11560000    1001.1141   -32257.028    1086.8655   -31170.163    4734.3451   -115.96201 
11564000    1002.8886   -32258.978     1088.792   -31170.186    4739.3879   -326.20232 
11568000    998.39785   -32254.099    1083.9166   -31170.182    4744.9456   -283.06584 
11572000    1004.1916   -32260.385    1090.2066   -31170.178     4750.881   -45.655231 
11576000    1011.3724   -32268.199    1098.0025   -31170.197    4756.1749   -210.16084 
11580000    1007.5112   -32263.997    1093.8105   -31170.187    4761.3096   -179.48996 
11584000    1002.6296    -32258.67    1088.5108   -31170.159    4766.9588   -232.12786 
11588000    1010.5141   -32267.255    1097.0707   -31170.184    4772.4143    -35.68478 
11592000    991.84027   -32246.956    1076.7973   -31170.159    4778.3355   -277.17266 
11596000    1016.3299   -32273.588    1103.3846   -31170.203    4783.6288    66.726756 
11600000    997.94998   -32253.612    1083.4303   -31170.182    4789.1469   -46.698321 
11604000    997.95025   -32253.596    1083.4306   -31170.165    4794.4405   -190.03687 
11608000    1007.9619   -32264.495    1094.2998   -31170.195    4799.7058    -209.8104 
11612000    1012.2997   -32269.198    1099.0092   -31170.189    4805.0913    -383.7179 
11616000    999.18712   -32254.978    1084.7735   -31170.205    4810.2043   -235.05308 
11620000    985.67786   -32240.288     1070.107   -31170.181     4816.032   -126.12008 
11624000    993.70973   -32249.042    1078.8269   -31170.215    4821.4504   -193.14113 
11628000    1004.9863   -32261.247    1091.0694   -31170.178    4827.1938   -169.41093 
11632000    1012.1768   -32269.074    1098.8757   -31170.198     4832.325   -254.45688 
11636000    1007.7357   -32264.253    1094.0543   -31170.199    4837.4052   -46.902577 
11640000    1013.4668   -32270.479    1100.2763   -31170.203    4842.8099   -257.73397 
11644000    996.88113   -32252.458    1082.2699   -31170.188    4848.1485   -265.35459 
11648000     995.5422   -32251.038    1080.8163   -31170.222    4853.1581   -205.10564 
11652000    999.19185   -32254.955    1084.7786   -31170.176    4858.1784   -311.36849 
11656000    993.67039   -32249.018    1078.7842   -31170.234    4863.2607   -148.80686 
11660000    995.65452   -32251.149    1080.9383    -31170.21    4868.6351   -102.89353 
11664000    1006.7261   -32263.147    1092.9582   -31170.189    4873.8391   -238.11524 
11668000    993.14179   -32248.418    1078.2103   -31170.207    4879.1211   -265.12452 
11672000    997.35148   -32253.011    1082.7806   -31170.231    4884.2924   -186.52083 
11676000    1008.9761   -32265.591    1095.4009    -31170.19    4889.8806   -183.02515 
11680000    997.50783   -32253.176    1082.9503   -31170.225    4895.5999   -193.21268 
11684000    1006.9853   -32263.438    1093.2396   -31170.198    4901.4168   -279.63282 
11688000    997.32619   -32252.945    1082.7531   -31170.192     4906.921   -86.989301 
11692000    996.85765   -32252.431    1082.2444   -31170.186    4912.6171   -127.47594 
11696000    997.21794   -32252.853    1082.6356   -31170.217    4917.5482   -228.80157 
11700000    993.97647   -32249.339    1079.1165   -31170.222    4923.5411   -73.901841 
11704000    996.21271   -32251.762    1081.5443   -31170.217    4928.6826   -127.14232 
11708000    1006.2512   -32262.628    1092.4426   -31170.186    4934.6802   -224.75114 
11712000    994.82543   -32250.225    1080.0382   -31170.187      4939.57   -210.22244 
11716000    1005.2898   -32261.617    1091.3989   -31170.218    4945.2057   -315.80484 
11720000    1005.1234   -32261.411    1091.2182   -31170.193    4950.6926   -171.36761 
11724000    1001.0181   -32256.934    1086.7612   -31170.173    4955.8182   -258.92701 
11728000    996.82288   -32252.413    1082.2067   -31170.206     4960.698   -281.71813 
11732000    1008.1722   -32264.721    1094.5282   -31170.193     4965.745   -229.55366 
11736000    999.64402   -32255.479    1085.2695    -31170.21    4970.9686   -220.65631 
11740000    996.65987   -32252.261    1082.0297   -31170.231    4976.0088   -106.56299 
11744000    1013.0587   -32270.053    1099.8332    -31170.22    4980.9599   -133.04087 
11748000    1005.3283   -32261.672    1091.4406   -31170.232    4986.0168   -317.21056 
11752000    1006.2386   -32262.668     1092.429   -31170.239    4991.7709   -430.41511 
11756000    1005.3691   -32261.698     1091.485   -31170.213    4996.7846   -238.73021 
11760000    992.86361   -32248.143    1077.9083   -31170.235    5002.3537   -137.71726 
11764000    995.87052   -32251.373    1081.1728     -31170.2     5007.009   -134.46138 
11768000    1005.2768   -32261.608    1091.3847   -31170.223    5012.3344   -213.54268 
11772000    995.69132   -32251.219    1080.9782   -31170.241    5017.3392   -237.39319 
11776000    1003.7595   -32259.955    1089.7375   -31170.217     5021.981   -303.09147 
11780000    1009.4083   -32266.093    1095.8701   -31170.223    5027.4306   -232.38425 
11784000    998.16891   -32253.892     1083.668   -31170.224    5032.8325   -276.18801 
11788000    1005.1416   -32261.463    1091.2379   -31170.225    5038.6429   -122.03897 
11792000     991.3041   -32246.434    1076.2152   -31170.219    5043.9041   -261.29208 
11796000    1003.6681   -32259.866    1089.6383   -31170.227    5048.6466   -160.38908 
11800000    992.59814    -32247.84    1077.6201    -31170.22    5053.9728    -246.0112 
11804000    996.89208   -32252.509    1082.2818   -31170.228     5059.326   -272.00699 
11808000    1003.2566   -32259.396    1089.1915   -31170.204    5064.0923     -253.829 
11812000    1007.1854   -32263.664    1093.4568   -31170.207    5068.8336   -256.50709 
11816000     995.6842   -32251.217    1080.9705   -31170.246    5074.2667   -161.53186 
11820000    999.83024     -32255.7    1085.4717   -31170.229    5079.5537   -159.90249 
11824000    998.41317   -32254.172    1083.9332   -31170.239    5084.6576   -353.28989 
11828000    1008.8846   -32265.547    1095.3016   -31170.245     5089.587   -132.67443 
11832000    999.50728   -32255.358     1085.121   -31170.237    5094.4948   -163.62348 
11836000     1003.239   -32259.403    1089.1724   -31170.231    5099.8757   -63.292522 
11840000    995.90449   -32251.464    1081.2096   -31170.254     5104.894   -229.16787 
11844000     995.7362   -32251.267    1081.0269   -31170.241    5110.5532   -141.25641 
11848000    1002.4995   -32258.585    1088.3695   -31170.215    5115.7472   -198.34774 
11852000    1008.3095   -32264.879    1094.6772   -31170.202    5121.0957    -216.7319 
11856000    1006.9054   -32263.383    1093.1528    -31170.23    5126.8752   -210.73146 
11860000    997.63926   -32253.332     1083.093   -31170.239    5132.0885   -86.546725 
11864000    997.71792   -32253.383    1083.1784   -31170.205    5137.7537   -361.31208 
11868000    996.24026   -32251.795    1081.5742   -31170.221    5143.1935   -174.17018 
11872000    1003.0899   -32259.241    1089.0105   -31170.231    5148.8863   -75.961985 
11876000    1014.4255   -32271.545     1101.317   -31170.228    5154.5231   -121.06734 
11880000    983.51557   -32237.998    1067.7595   -31170.238    5160.4272   -78.287415 
11884000    994.44516   -32249.854    1079.6253   -31170.228    5165.9512   -192.80029 
11888000    1004.2812   -32260.516    1090.3039   -31170.212    5171.3859   -159.76829 
11892000    1003.3159   -32259.514    1089.2559   -31170.258    5177.2307   -247.02427 
11896000    996.32906   -32251.933    1081.6706   -31170.262    5182.1699   -201.97336 
11900000    996.69417   -32252.315     1082.067   -31170.248    5187.4558   -284.64697 
11904000    994.25598   -32249.684    1079.4199   -31170.264    5192.5812   -199.96687 
11908000    997.39149    -32253.08     1082.824   -31170.256    5197.4191   -173.57751 
11912000    1010.5153   -32267.298     1097.072   -31170.226     5202.195   -259.15652 
11916000    1001.7745    -32257.84    1087.5824   -31170.257     5207.604   -179.71066 
11920000    998.18906   -32253.959    1083.6899   -31170.269    5212.4797   -307.67695 
11924000     1000.015   -32255.923    1085.6722   -31170.251    5217.6341   -158.20848 
11928000    988.95369   -32243.925    1073.6635   -31170.262     5223.241   -201.40015 
11932000    996.10776   -32251.696    1081.4303   -31170.266    5228.4877   -152.80178 
11936000    994.38779   -32249.847     1079.563   -31170.284    5233.5632   -258.86079 
11940000    998.16954   -32253.932    1083.6687   -31170.263    5239.0043   -212.24896 
11944000    1001.6582   -32257.669    1087.4562   -31170.213    5244.0645   -154.82653 
11948000    1002.4717   -32258.599    1088.3394    -31170.26    5250.0497   -179.88314 
11952000    1003.8005   -32260.034     1089.782   -31170.252    5255.2836    -229.4878 
11956000    999.19863   -32255.017    1084.7859   -31170.231    5260.6371   -72.636694 
11960000    1013.3505     -32270.4      1100.15    -31170.25    5265.8614   -117.98298 
11964000    1000.5418   -32256.499    1086.2441   -31170.255    5271.1684   -259.68363 
11968000    983.91315   -32238.452    1068.1912   -31170.261    5276.9847   -139.94367 
11972000    989.35609   -32244.346    1074.1003   -31170.246    5281.9436   -208.90874 
11976000    1017.9582   -32275.402    1105.1524    -31170.25    5287.9277   -180.18394 
11980000     992.6038   -32247.881    1077.6262   -31170.255    5293.5134   -106.35489 
11984000    998.58668   -32254.364    1084.1216   -31170.242    5299.1323   -213.10216 
11988000    1006.2287    -32262.68    1092.4182   -31170.262    5305.7419   -70.535038 
11992000    1006.1852    -32262.62     1092.371   -31170.249    5310.2362   -104.49092 
11996000    1001.8307    -32257.92    1087.6435   -31170.276    5315.3954   -219.58975 
12000000    1004.3747   -32260.678    1090.4054   -31170.273    5321.3264    -144.3592 
Loop time of 64193.9 on 16 procs for 4000000 steps with 8400 atoms

Performance: 5.384 ns/day, 4.458 hours/ns, 62.311 timesteps/s
59.4% CPU use with 16 MPI tasks x 1 OpenMP threads

MPI task timing breakdown:
Section |  min time  |  avg time  |  max time  |%varavg| %total
---------------------------------------------------------------
Pair    | 32803      | 34140      | 35671      | 446.5 | 53.18
Kspace  | 23323      | 25107      | 26768      | 624.5 | 39.11
Neigh   | 403.16     | 417        | 433.4      |  40.1 |  0.65
Comm    | 3262       | 3653.3     | 4256.3     | 490.8 |  5.69
Output  | 0.67469    | 0.67782    | 0.68395    |   0.3 |  0.00
Modify  | 104.57     | 108.2      | 115.88     |  30.2 |  0.17
Other   |            | 767.7      |            |       |  1.20

Nlocal:    525 ave 549 max 503 min
Histogram: 2 2 2 1 2 0 2 1 3 1
Nghost:    7180.25 ave 7445 max 6990 min
Histogram: 2 2 0 3 5 2 0 0 0 2
Neighs:    203542 ave 212938 max 192800 min
Histogram: 2 0 1 3 2 1 1 1 2 3

Total # of neighbors = 3256667
Ave neighs/atom = 387.698
Neighbor list builds = 101532
Dangerous builds = 0

write_restart   RNEMDfinal.restart
PPPM initialization ...
  using 12-bit tables for long-range coulomb (../kspace.cpp:332)
  G vector (1/distance) = 0.190725
  grid = 100 15 6
  stencil order = 5
  estimated absolute RMS force accuracy = 0.000570746
  estimated relative force accuracy = 3.96361e-05
  using double precision KISS FFT
  3d grid and FFT values/proc = 3192 624

write_data      RNEMDfinal.data  nocoeff
PPPM initialization ...
  using 12-bit tables for long-range coulomb (../kspace.cpp:332)
  G vector (1/distance) = 0.190725
  grid = 100 15 6
  stencil order = 5
  estimated absolute RMS force accuracy = 0.000570746
  estimated relative force accuracy = 3.96361e-05
  using double precision KISS FFT
  3d grid and FFT values/proc = 3192 624
Total wall time: 53:28:12
